  42
        -77.27397024
 C          2.6100717577        2.8427317354        1.3641768848
 N          2.5303557222        2.5214767287       -0.0425733251
 N          1.6270625118        2.9499824456       -0.8487251443
 O          0.7328245679        3.6878464893       -0.3800023764
 C          3.5070397676        1.5926939441       -0.6110905258
 O          4.7999536710        2.0025623489       -0.3158391400
 C          3.3121572648        0.1811817603       -0.0425490776
 C          1.9208758204       -0.3906183109       -0.3381538659
 O          1.0089071550        0.2842021655        0.5291322672
 C         -0.3184794642        0.1835830303        0.3154056148
 C         -1.1275346584        0.9737425572        1.1390395672
 C         -2.4959749840        0.9611390984        0.9992126137
 C         -3.0797575949        0.1529374435        0.0281389177
 C         -4.5627191041        0.1074561801       -0.1273727533
 F         -5.1247114809       -0.9686531613        0.4837035480
 F         -5.1983707629        1.1757035140        0.3858743541
 F         -4.9626818749        0.0217720615       -1.4133783189
 C         -2.2867934029       -0.6458993214       -0.7852611266
 C         -0.9130740232       -0.6331681285       -0.6453653344
 C          1.9202977379       -1.8871952107       -0.1140829022
 C          2.1914722162       -2.7490449635       -1.1691926987
 C          2.2167922975       -4.1165872992       -0.9620596999
 C          1.9673389404       -4.6329327011        0.2989246567
 C          1.6968260767       -3.7771773547        1.3529984914
 C          1.6776539986       -2.4085739949        1.1488024401
 H          3.6540358170        2.8104329887        1.6637484924
 H          2.1881600729        3.8379248937        1.5064421749
 H          2.0246997885        2.1252926658        1.9390142302
 H          3.3014409048        1.5862199951       -1.6901482819
 H          4.0687414366       -0.4580686025       -0.4954536439
 H          3.4767861022        0.1976562797        1.0337312314
 H          1.6553834598       -0.1658132586       -1.3808257411
 H         -0.6602300833        1.6047397175        1.8766631653
 H         -3.1134542779        1.5797235994        1.6306284667
 H         -2.7467004960       -1.2743678264       -1.5316798120
 H         -0.3189123948       -1.2704464880       -1.2779774656
 H          2.3809647616       -2.3475150727       -2.1538366694
 H          2.4275314508       -4.7804770146       -1.7863265528
 H          1.9827381496       -5.7000645819        0.4588139148
 H          1.5018777125       -4.1747535513        2.3371852282
 H          1.4639808041       -1.7394873651        1.9686412167
 H          5.0753162296        2.7392531457       -0.8801681132
