  88
       -141.09049866
 C         -5.4425569233       -1.8880842979        1.3518389681
 C         -4.2982317003       -2.6817850001        1.9712145179
 C         -3.8749499228       -3.8555950558        1.0896781743
 C         -2.7130812728       -4.6311165690        1.7086915082
 C         -2.3274415373       -5.8923354719        0.9327714934
 C         -1.7355538582       -5.6186280531       -0.4486306068
 O         -0.5058259853       -4.8803230967       -0.3452789857
 C         -0.5358293787       -3.5812862707       -0.6355025988
 O         -1.5127350836       -2.9925082767       -1.0611088616
 N          0.6431345233       -2.9281682325       -0.4421019048
 C          1.9021090686       -3.4012804111       -0.0497716071
 N          2.2139345910       -4.5657708937        0.3138164931
 C          2.9376801183       -2.3465978513       -0.0931237303
 C          3.9314640031       -2.3104348138        0.8818740245
 C          4.8601948221       -1.2897006396        0.8938741822
 C          4.8140862116       -0.2979196227       -0.0837726799
 N          5.6953786273        0.7979520973       -0.0052363846
 C          5.2309828337        2.1155139042       -0.4450586711
 C          3.8139792181        2.3371543049       -0.0574540690
 N          2.8646726855        2.5994159927       -0.9185753793
 C          1.7117476057        2.6720651490       -0.1825493667
 C          0.4017622126        2.9140930396       -0.5735272974
 C         -0.5825855650        2.8564247013        0.3977847007
 C         -1.9832413783        3.1547991320       -0.0048340666
 O         -2.2346638527        4.1701407671       -0.6459173545
 N         -2.9506563975        2.2709733347        0.3912231599
 C         -2.6407559790        0.8755101743        0.6781039972
 C         -2.5324134443        0.0451633975       -0.6075802734
 C         -1.1675447603        0.1316080843       -1.2335925695
 O         -0.1386016666       -0.1843681440       -0.6644391453
 O         -1.2115886953        0.5697592159       -2.4773327023
 C          0.0043778487        0.5803166375       -3.2470443381
 C          0.1391394530       -0.7164188517       -4.0315030728
 C         -4.3163186418        2.5635612645        0.2205350402
 C         -4.8145158806        3.8653013326        0.3003874648
 C         -6.1774823144        4.0526383889        0.1652498899
 C         -7.0033164191        2.9540023665       -0.0308144941
 C         -6.4118673759        1.7041501936       -0.0703029486
 N         -5.1093017963        1.5119946771        0.0507975247
 C         -0.2652805869        2.6391661483        1.7493123043
 C          1.0333939703        2.4349170818        2.1595322595
 C          2.0157288953        2.4356473931        1.1800589955
 N          3.3704321684        2.2437962830        1.2303178942
 C          4.1335667366        1.9661891030        2.4174553133
 N          6.8461603935        0.6062053993        0.5483034442
 O          7.5912703110        1.5948045007        0.6873470102
 C          3.8746020883       -0.3720963597       -1.1077011232
 C          2.9406128013       -1.3887456416       -1.1041455769
 H         -5.1482879187       -1.4747353317        0.3903872889
 H         -6.3085172863       -2.5288381684        1.2019885442
 H         -5.7329648070       -1.0652036675        2.0004806797
 H         -3.4388591952       -2.0246459426        2.1255395203
 H         -4.6058396947       -3.0597139422        2.9491257759
 H         -4.7244339732       -4.5270993848        0.9477751261
 H         -3.5820802274       -3.4709269998        0.1108967290
 H         -1.8436411958       -3.9720009506        1.7878795682
 H         -2.9878878216       -4.9281411622        2.7230000895
 H         -1.5946730215       -6.4544355705        1.5142303832
 H         -3.2078576815       -6.5195324630        0.7911801988
 H         -1.4684504159       -6.5556185801       -0.9404136500
 H         -2.4291191211       -5.0545179642       -1.0759876024
 H          1.4563368840       -5.2396450626        0.3173069804
 H          3.9451083268       -3.0772364815        1.6380513841
 H          5.6164878923       -1.2365450338        1.6599323763
 H          5.9078277070        2.8385799434        0.0300886470
 H          5.3229906527        2.2180928909       -1.5279644386
 H          0.1473511968        3.1261482670       -1.5997933930
 H         -1.7033287728        0.8057567938        1.2278712890
 H         -3.4608177725        0.4882869786        1.2813599458
 H         -2.6806001510       -1.0089891703       -0.3646979991
 H         -3.2878481176        0.3542955411       -1.3265204375
 H         -0.0884528961        1.4371827311       -3.9151124902
 H          0.8480671086        0.7270907752       -2.5653606770
 H          0.1116378977       -1.5690684116       -3.3551022370
 H         -0.6832434385       -0.8139686246       -4.7345414942
 H          1.0781802349       -0.7166284674       -4.5752452562
 H         -4.1539598530        4.7001828368        0.4595093285
 H         -6.5898355690        5.0483132214        0.2221429687
 H         -8.0688942457        3.0666442157       -0.1403894037
 H         -6.9933698931        0.8022423458       -0.2024003995
 H         -1.0585857003        2.6593199684        2.4811176734
 H          1.2673807499        2.2748894780        3.1994079361
 H          5.1721821247        2.2570266860        2.2738659033
 H          3.7230623453        2.5403037126        3.2462670046
 H          4.0874101490        0.9028576567        2.6618851812
 H          3.8615228458        0.3586366658       -1.8987873009
 H          2.2221331494       -1.4395392296       -1.9061647594
 H          0.5598682635       -1.9181279504       -0.5686073185
