  18
        -28.90141279
 C         -1.8288491734       -1.7404111863       -0.5079870860
 N         -1.3599566474       -0.4246458050       -0.1276367899
 N         -2.3010615309        0.4125319944        0.1569324518
 O         -2.0012559577        1.5627118565        0.5479584477
 C          0.0394773965       -0.1936526824       -0.0705748148
 C          0.8884664596       -1.1931991099        0.3986688825
 C          2.2511655098       -0.9682555660        0.4513058956
 C          2.7781850542        0.2446156242        0.0374042456
 C          1.9344522794        1.2362208894       -0.4329162088
 C          0.5684492523        1.0234165646       -0.4895646090
 H         -2.8827665865       -1.6544599969       -0.7581433149
 H         -1.2625829412       -2.0957028705       -1.3659577913
 H         -1.7199837267       -2.4426180034        0.3179908961
 H          0.4897187118       -2.1358590206        0.7343868071
 H          2.9041977957       -1.7443401967        0.8185446688
 H          3.8421250914        0.4167449316        0.0811284318
 H          2.3354924580        2.1822185465       -0.7616794084
 H         -0.0846142450        1.7985679757       -0.8588281893
