  41
        -62.46032325
 C         -3.9229315598        0.5267555728       -2.1205798420
 C         -4.5297593644       -0.2443494291       -0.9511484502
 C         -5.7680574769        0.4530751243       -0.3933265359
 N         -3.5302374034       -0.4419256340        0.0882636066
 C         -2.9316661645        0.6816285441        0.7777032859
 C         -1.5017859180        0.9745860485        0.2793095370
 O         -1.5256847758        2.2516457533       -0.3142345778
 C         -0.4877299063        0.9114836901        1.4340552342
 O          0.8404058750        1.0478148756        0.9719459013
 C          1.5101996502       -0.0466772371        0.4904841197
 C          0.9832238831       -1.3077109137        0.3608736524
 C          1.7671032750       -2.3519279711       -0.1547904857
 C          3.0575341393       -2.1413196100       -0.5441718057
 C          3.6358844973       -0.8603243269       -0.4186327612
 C          4.9700982814       -0.6040039903       -0.7978388814
 C          5.5153468605        0.6414083349       -0.6549437915
 C          4.7511316770        1.6890168915       -0.1208091990
 C          3.4530307206        1.4750804984        0.2530873532
 C          2.8621979435        0.2036343693        0.1097068577
 N         -3.1823637502       -1.6518840534        0.3248177608
 O         -2.2844506564       -1.8319168320        1.1831726701
 H         -4.6802355879        0.6774864836       -2.8830661476
 H         -3.5524806642        1.4964106029       -1.7985249042
 H         -3.0984847725       -0.0318336625       -2.5565132187
 H         -4.7966220806       -1.2552575533       -1.2727375435
 H         -6.1070832276       -0.0401186153        0.5135605671
 H         -5.5706675592        1.4988330039       -0.1765303635
 H         -6.5631490675        0.4037207864       -1.1304574616
 H         -3.5355664527        1.5702411261        0.6149785420
 H         -2.9070464987        0.4349826857        1.8433135380
 H         -1.2116854052        0.2248891040       -0.4747250563
 H         -0.6477692359        1.7672945291        2.0953592979
 H         -0.6203761797       -0.0169499600        1.9972952569
 H         -0.0310601886       -1.5345730113        0.6527706337
 H          1.3188898566       -3.3303574540       -0.2407062645
 H          3.6522171208       -2.9470977096       -0.9467139381
 H          5.5542281900       -1.4175122318       -1.2023505395
 H          6.5380825058        0.8255511624       -0.9475147965
 H          5.1953396164        2.6659414531       -0.0050796469
 H          2.8603000461        2.2723102673        0.6730659092
 H         -0.6213508856        2.5332770352       -0.5101094103
