  24
        -33.92147240
 C         -1.8482800813       -0.9636476865       -1.2408158634
 C         -1.0330227847       -0.9150501930        0.0503153664
 C         -1.9360076614       -0.8226323454        1.2799680324
 N         -0.0882418423        0.2098675680        0.0209552292
 N         -0.3866168175        1.4550261615       -0.0459870816
 O         -1.5901072816        1.7904773468       -0.0931501057
 C          1.3635843780       -0.1117049790        0.0093284710
 C          1.7196717499       -0.7045619029       -1.3564769023
 C          2.1717608548        1.1527009329        0.2760732868
 O          1.6002463317       -1.0929444806        0.9755831247
 H         -1.1963143860       -1.0311793723       -2.1078007776
 H         -2.4997754599       -1.8320386934       -1.2201583886
 H         -2.4612509584       -0.0696903862       -1.3336858690
 H         -0.4158809942       -1.8132364152        0.1351582258
 H         -2.5315922025        0.0871425441        1.2489748960
 H         -2.6057912653       -1.6770572871        1.2954837630
 H         -1.3439351780       -0.8256042651        2.1912574091
 H          1.2211741083       -1.6588452281       -1.4963665431
 H          1.4298871801       -0.0191881145       -2.1463152790
 H          2.7916127374       -0.8699011359       -1.3960178441
 H          2.0430234547        1.8631957758       -0.5321790882
 H          1.8499854457        1.6250962669        1.1999833056
 H          3.2210667115        0.8816668331        0.3526958837
 H          1.7198952925       -0.6881352101        1.8465933411
