  21
        -33.17117950
 C         -2.6616901222       -0.3655762232       -0.5227584953
 N         -1.6837767387       -0.6878734100        0.5000033204
 C         -0.6595102633       -1.6135092516        0.0835633771
 C          0.4050179852       -0.9458610832       -0.8120757355
 N          0.9602242194        0.1799524625       -0.0949140521
 N          2.1815860184        0.3167458261        0.2907487001
 O          2.9931447563       -0.5894702571       -0.0142325979
 C          0.0011920729        1.1778463273        0.3560008257
 O         -0.5643411934        1.8467501829       -0.7250168130
 C         -1.1090751394        0.4519571066        1.1654959753
 H         -3.0781499923       -1.2943316036       -0.9068165423
 H         -3.4617917245        0.2091435376       -0.0611649633
 H         -2.2528660455        0.2183121331       -1.3536756902
 H         -0.1670288720       -2.0048906678        0.9792649136
 H         -1.1154756354       -2.4427519189       -0.4564453310
 H          1.2242001884       -1.6284975995       -1.0456731193
 H         -0.0556283012       -0.5781236576       -1.7310086678
 H          0.5513778718        1.8553193978        1.0208754755
 H         -1.8925419554        1.1774217173        1.3819166835
 H         -0.6597211504        0.1140824555        2.1031351057
 H          0.0442225837        2.5067704904       -1.0856917743
