  29
        -48.67993653
 C          0.2912389231       -2.6148392325        1.5963459060
 C          0.8179115503       -1.2332615388        1.2218947857
 C          1.8827709534       -1.3811623066        0.1114543831
 N          2.0422320165       -0.1885987818       -0.6943081764
 N          1.7280927779       -0.0913279424       -1.9386650488
 O          1.2483720043       -1.0924154165       -2.5078848008
 C          2.5209002128        1.0483311986       -0.0745006779
 O          3.7487772696        0.8450498522        0.5391041077
 C          1.5172991241        1.5442757407        0.9868557505
 C          0.1151605937        1.1039619415        0.6787229920
 C         -0.8295611687        2.0294613266        0.2617133278
 C         -2.1192766282        1.6438089731       -0.0586720170
 C         -2.4512008077        0.3063291910        0.0406776258
 Cl        -4.0634004630       -0.2117363773       -0.3735454343
 C         -1.5290423540       -0.6373064051        0.4570303683
 C         -0.2385658152       -0.2478944872        0.7825970834
 H         -0.4627950592       -2.5324707689        2.3742288024
 H         -0.1397965154       -3.1205054247        0.7356777422
 H          1.1089395727       -3.2250567871        1.9712241288
 H          1.3065564318       -0.8156012729        2.1074037322
 H          2.8511171144       -1.6261784434        0.5512767073
 H          1.5841297926       -2.1681834139       -0.5880464523
 H          2.5737563252        1.7659565942       -0.9027448616
 H          1.8467743699        1.1544268595        1.9514263950
 H          1.5733587664        2.6301688966        1.0267985357
 H         -0.5571567164        3.0700418499        0.1811755987
 H         -2.8496618487        2.3655342642       -0.3852071969
 H         -1.8280427256       -1.6698134696        0.5169994269
 H          4.4685674625        0.8262561221       -0.1071352302
