  39
        -61.40586742
 C         -3.4061154829       -0.6919549371       -0.0805637168
 N         -2.6069213018        0.4491813715        0.3107139180
 N         -2.2545380408        0.7247050008        1.5156352808
 O         -2.5547569804       -0.0823308526        2.4186770624
 C         -2.2804869221        1.4197477595       -0.7383598274
 O         -3.3868538790        2.2244815453       -0.9911819403
 C         -1.0180954857        2.2434629132       -0.4130744244
 O          0.1878421670        1.5908212303       -0.7092643658
 C          0.6183173883        0.5967191649        0.2130349443
 C          2.1329480104        0.5512934529        0.2165400422
 C          2.8493416954        0.8732175836       -0.9272991403
 C          4.2307656788        0.7926011397       -0.9294405765
 C          4.9059837464        0.3808249671        0.2069712990
 C          4.1943056288        0.0560060959        1.3497130790
 C          2.8134509171        0.1423431488        1.3554600896
 C          0.1295291704       -0.7902746285       -0.1564392352
 C         -0.1385211961       -1.7312190205        0.8290255626
 C         -0.5490929127       -3.0065529808        0.4817586225
 C         -0.6930396453       -3.3528589813       -0.8518932036
 C         -0.4211635878       -2.4192277195       -1.8388271812
 C         -0.0068663538       -1.1452183337       -1.4921539232
 H         -2.7974921715       -1.3916460600       -0.6520240047
 H         -3.7625802342       -1.1754755454        0.8285408366
 H         -4.2417757419       -0.3420203557       -0.6833757970
 H         -2.1086834597        0.8446657262       -1.6556512176
 H         -1.0276550458        3.1169201491       -1.0703553412
 H         -1.0461057288        2.5632147543        0.6355589829
 H          0.2605479377        0.8497596442        1.2219298804
 H          2.3161562769        1.2013526671       -1.8050116746
 H          4.7809565009        1.0501802709       -1.8216631964
 H          5.9833529593        0.3152619378        0.2043658490
 H          4.7147665899       -0.2617516056        2.2405704046
 H          2.2607146843       -0.1075621628        2.2496396941
 H         -0.0425110555       -1.4621591437        1.8714452551
 H         -0.7623375514       -3.7275717575        1.2562441867
 H         -1.0166416495       -4.3469907425       -1.1194922803
 H         -0.5292150625       -2.6843896785       -2.8794699382
 H          0.2105418569       -0.4108272640       -2.2526255915
 H         -3.5181293470        2.8644550108       -0.2752197236
