  42
        -66.53007763
 C          4.4208332404       -0.0500728113        1.4938337914
 C          4.0341887906        0.8129308871        0.2946519657
 C          4.5679016036        2.2335519929        0.4370646722
 N          2.5795052482        0.8353112162        0.1590718176
 N          1.9169206523        1.4799087911        1.0494750193
 O          0.6662932541        1.4246621752        0.9974506872
 C          1.9033922739        0.0484167000       -0.8806262086
 O          2.6949751906       -0.1297383943       -1.9999487873
 C          1.5224598066       -1.3460019756       -0.3253295136
 O          2.6281992693       -2.1930485418       -0.2393465486
 C          0.4200033868       -1.9512092839       -1.2190517043
 O         -0.7289389194       -1.1385616507       -1.2829879884
 C         -1.5699818954       -1.0496653275       -0.2042559094
 C         -1.4993899343       -1.8290239680        0.9226025558
 C         -2.4285725819       -1.6591828804        1.9602561542
 C         -3.4161817853       -0.7220055197        1.8758468809
 C         -3.5224246977        0.0955450330        0.7309815127
 C         -4.5286632001        1.0756651857        0.6039320611
 C         -4.6121045520        1.8574148978       -0.5142482393
 C         -3.6928843335        1.6931678300       -1.5605903935
 C         -2.7062578123        0.7506553497       -1.4695302594
 C         -2.5942914398       -0.0666617826       -0.3275143279
 H          5.5019960844       -0.1095440112        1.5651358651
 H          4.0264241553        0.3894530044        2.4060407927
 H          4.0205851246       -1.0548877371        1.3834713991
 H          4.4128112789        0.3549843773       -0.6226137065
 H          4.1707747939        2.6877854529        1.3396648402
 H          5.6509180867        2.2059776896        0.4993840505
 H          4.2817473429        2.8452661987       -0.4137982967
 H          0.9650852115        0.5874924687       -1.0849064716
 H          1.1386700349       -1.2160250825        0.6922758103
 H          0.7810543728       -2.0007950664       -2.2496601622
 H          0.1871466766       -2.9630545748       -0.8712512991
 H         -0.7348061663       -2.5806411303        1.0391289500
 H         -2.3427195631       -2.2863697782        2.8346927125
 H         -4.1241728107       -0.5901059468        2.6798235243
 H         -5.2337178903        1.1963477946        1.4133311367
 H         -5.3853134271        2.6060860541       -0.5996517836
 H         -3.7696470914        2.3167543515       -2.4384726237
 H         -1.9962574010        0.6122563997       -2.2701434066
 H          2.6756995450        0.6481074249       -2.5747044975
 H          3.0617886264       -2.2243788720       -1.1083378667
