  31
        -53.75752030
 O         -1.4736966239       -2.6200393270        0.8747114647
 N         -1.6537054426       -1.5197051487        1.4390348067
 N         -2.1542863197       -0.5570765136        0.7521888663
 C         -2.2508893701        0.7303328260        1.4064138283
 C         -1.4575759979        1.7678309957        0.5894793596
 C         -2.0936735260        1.8428365790       -0.8032663111
 C         -1.6483875750        0.4973726908       -1.3867200033
 C         -0.2237408360        0.4107282696       -0.9118905850
 C          0.8272171248       -0.2865408975       -1.4204155838
 C          2.0659944305       -0.2178294343       -0.7407146275
 N          3.1269596347       -0.8935842244       -1.2294156071
 C          4.2500347159       -0.8124713710       -0.5622363523
 C          4.3678803350       -0.0498145518        0.6144413148
 N          3.3616982392        0.6242972122        1.1098504608
 C          2.1858163033        0.5575708802        0.4511535738
 C          1.0673869285        1.2602551066        0.9576758335
 C         -0.1058456695        1.1820984639        0.2742287493
 C         -2.4569441223       -0.6164084751       -0.6869117250
 O         -3.8118590712       -0.4152495145       -0.9176677395
 H         -3.3012750581        1.0265866745        1.4524824690
 H         -1.8498129491        0.6082369420        2.4119720354
 H         -1.4201545928        2.7144713717        1.1236064428
 H         -3.1765378138        1.9354130280       -0.7785204616
 H         -1.6703247137        2.6618293757       -1.3824603468
 H         -1.7772249408        0.4028258477       -2.4632973055
 H          0.7578375262       -0.8870576098       -2.3130154482
 H          5.0909672305       -1.3603803246       -0.9633631066
 H          5.3028458691        0.0093053472        1.1533767108
 H          1.1822669559        1.8304613228        1.8647634968
 H         -2.1141630409       -1.6071137276       -1.0201413450
 H         -4.3238873410       -1.2184457879       -0.7530215464
