  21
        -30.75567996
 C         -2.1222615724       -0.3065806151       -1.2774479775
 C         -1.5612647458       -0.4026650408        0.1395334090
 C         -2.1577525811        0.6558013532        1.0623138396
 N         -0.1052739655       -0.3220795773        0.1221732133
 N          0.5081626547       -1.3924849417        0.4706358017
 O          1.7619781353       -1.3895935053        0.4403700417
 C          0.5851504077        0.9030525830       -0.3285420922
 C          1.2700893222        1.5754699059        0.8610555451
 O          1.4573332072        0.6111259559       -1.3758451260
 H         -1.6354646666       -1.0294087246       -1.9267989764
 H         -3.1860283175       -0.5205428653       -1.2538511568
 H         -1.9787792402        0.6858027170       -1.6955039534
 H         -1.7702559824       -1.3981510866        0.5424986273
 H         -3.2291559643        0.4968568745        1.1331189595
 H         -1.7313443263        0.5761583017        2.0584785357
 H         -1.9842053889        1.6576086349        0.6799918555
 H         -0.1707943054        1.5641433261       -0.7581679520
 H          1.9814857587        0.8922344364        1.3207446558
 H          1.8038946631        2.4520489529        0.5058328861
 H          0.5329113151        1.8743456870        1.5991179808
 H          2.1658619620        0.0344909806       -1.0388386476
