  44
        -81.83702170
 O         -6.5993439679       -0.0259556817        1.2346409003
 N         -5.8105421207        0.7599284979        0.6715966647
 N         -4.5783526802        0.4018373416        0.5616495106
 C         -4.0065804682       -0.8553284117        0.9987704389
 C         -3.4134022684       -1.5879583956       -0.2156917243
 N         -2.4285275049       -0.7386134577       -0.8449549633
 C         -1.0881514113       -0.8520985583       -0.5696443616
 C         -0.2721399586        0.2627668125       -0.3765065672
 C          1.1011984429        0.1554695219       -0.1728703731
 C          1.7128961735       -1.1100174329       -0.1370553438
 C          0.9056639663       -2.2359034212       -0.3309188907
 C         -0.4364091925       -2.1055880160       -0.5473082957
 F         -1.1495015518       -3.2490203718       -0.7771459227
 C          3.1468413907       -1.2908177433        0.0968797465
 O          3.6690952383       -2.4104701915        0.0958359619
 C          3.8505823659       -0.0415562882        0.3279843388
 C          5.2842317362        0.0245077202        0.6214430755
 O          5.8835543452        1.0798763920        0.7826467571
 O          5.9031286942       -1.1431204664        0.7044803995
 C          3.1778584166        1.1550912174        0.2765041347
 N          1.8789884714        1.2847407848        0.0182281563
 C          1.2812919761        2.5931015395       -0.0282825167
 C          1.9993370888        3.7038620347       -0.7321847899
 C          0.7659715842        3.1120462179       -1.3405011811
 C         -3.0108404105        0.5023814727       -1.2916055156
 C         -3.6818881275        1.3034533376       -0.1535805103
 O         -2.7100628114        1.8193207605        0.6947592581
 H         -3.2177263919       -0.6442156401        1.7249556924
 H         -4.8043641324       -1.4361442834        1.4663791133
 H         -2.9805649038       -2.5257912026        0.1198666898
 H         -4.2076295385       -1.8077524093       -0.9354909959
 H         -0.7311829413        1.2331733963       -0.3344069361
 H          1.3690383739       -3.2101791606       -0.3234176522
 H          3.7400652691        2.0606230675        0.4614310414
 H          0.7249196871        2.8274145791        0.8711759642
 H          1.9474059258        4.6889953191       -0.2977132514
 H          2.9451306147        3.4846461510       -1.2017249536
 H          0.8898289747        2.4836325756       -2.2081261138
 H         -0.1460500321        3.6866171496       -1.3343453726
 H         -2.2582895438        1.1219667055       -1.7735352773
 H         -3.7881490030        0.2576449123       -2.0215959689
 H         -4.3161470984        2.0902224532       -0.5822516851
 H          6.8540835994       -1.0318008181        0.8968798162
 H         -3.0966951465        2.4551492505        1.3129545495
