  42
        -68.94965951
 C         -4.2230590740        1.2266239943        0.4033168720
 N         -2.9467542767        1.4072172317       -0.2544733979
 N         -2.7178145368        1.1372387864       -1.4901621641
 O         -3.6487444170        0.6298662145       -2.1508681002
 C         -1.8308321327        1.9706444336        0.5053111057
 O         -2.1945975199        3.2061579525        1.0299730713
 C         -1.4288454058        1.0651630868        1.6754556852
 C         -0.5418623432       -0.1172571559        1.2573169554
 O          0.6462969160        0.4330823433        0.7206979093
 C          1.7423623177       -0.3660083923        0.5530452735
 C          1.7879954088       -1.7123878786        0.8163507038
 C          2.9740659056       -2.4344482390        0.6125518650
 C          4.1010197218       -1.8224869589        0.1467793688
 C          4.0918172103       -0.4403498309       -0.1382092204
 C          5.2343454699        0.2299542234       -0.6229805938
 C          5.2027972337        1.5702629603       -0.8904494550
 C          4.0258247422        2.3044856861       -0.6831933915
 C          2.9003003143        1.6851066944       -0.2141570483
 C          2.9032440060        0.3043470930        0.0670747148
 C         -1.2227273383       -1.0244248651        0.2741507006
 C         -0.9535505451       -1.2147646252       -1.0442530731
 C         -1.8169062565       -2.1555114245       -1.6539430572
 C         -2.7286671627       -2.6667451638       -0.7932277161
 S         -2.5494141106       -2.0160250376        0.7884021419
 H         -4.3114493399        0.2122669048        0.7938623140
 H         -4.2993739741        1.9554352823        1.2051400632
 H         -5.0061120272        1.3775525654       -0.3409909035
 H         -0.9964334138        2.0402187846       -0.2040233504
 H         -0.8615658105        1.6898250804        2.3656017502
 H         -2.3125665691        0.6924327040        2.1892064062
 H         -0.3075288450       -0.6870449805        2.1702419283
 H          0.9188459188       -2.2439209459        1.1696279744
 H          2.9756488052       -3.4918033709        0.8297867460
 H          5.0099648272       -2.3826641226       -0.0114227410
 H          6.1381066833       -0.3407962917       -0.7788140502
 H          6.0834644725        2.0725500956       -1.2617792718
 H          4.0154244258        3.3625774795       -0.8965023360
 H          1.9903880162        2.2399161305       -0.0482092339
 H         -0.1696297001       -0.7010098345       -1.5701645493
 H         -1.7607168710       -2.4240548038       -2.6926920418
 H         -3.5048185317       -3.3809732800       -0.9787109490
 H         -2.1997131554        3.8916574953        0.3470562150
