  42
        -60.72956065
 C         -3.4065794148        0.5067392084        0.7854422546
 N         -2.6063035395        1.6278089000        0.3685453975
 C         -2.6069158252        2.0002866494       -1.0322966141
 C         -1.7425530718        1.0475228754       -1.8727735556
 C         -0.3126600885        1.0970149901       -1.4341612499
 C          0.3457152545        0.1122240611       -0.8198438162
 C          1.7611086515        0.2747649323       -0.4303789467
 C          2.6161447111        0.8201123869       -1.3915597239
 C          3.9616476990        1.0020308350       -1.1509999923
 C          4.4863830483        0.6323758922        0.0762083203
 C          3.6513136706        0.0923817879        1.0327416398
 C          2.2890005966       -0.0994888693        0.8085597548
 C          1.5145853370       -0.6898872418        1.9614636030
 C         -0.0113991483       -0.6481779960        1.8642913147
 C         -0.4797415363       -1.5746462515        0.7850189074
 C         -1.0703391302       -2.7978729547        1.0626068796
 C         -1.4488617928       -3.6463984112        0.0354534246
 C         -1.2321972167       -3.2779139614       -1.2815698775
 C         -0.6466296097       -2.0569312665       -1.5698374810
 C         -0.2718022463       -1.2015582024       -0.5415290949
 N         -1.9195089721        2.2095251575        1.2810033782
 O         -1.1956936900        3.1804362106        0.9534115760
 H         -4.4477783909        0.6750336001        0.5137907219
 H         -3.0524609340       -0.4065324359        0.3072211111
 H         -3.3148588431        0.4065080121        1.8630564674
 H         -3.6368461162        1.9916753504       -1.3910814791
 H         -2.2010641186        3.0156795518       -1.0854972650
 H         -2.1334014341        0.0332977305       -1.7972109641
 H         -1.8126633782        1.3732258377       -2.9124023478
 H          0.1784255964        2.0524608861       -1.5720800844
 H          2.2057793708        1.0893739888       -2.3539439120
 H          4.5972822468        1.4243662322       -1.9147368476
 H          5.5372326232        0.7653790124        0.2850999013
 H          4.0598786059       -0.1912677751        1.9927402878
 H          1.8285765004       -1.7332734010        2.0780277759
 H          1.8188757234       -0.1593513930        2.8678753809
 H         -0.4300233559       -0.9498568397        2.8254849028
 H         -0.3304031341        0.3769812421        1.6600353970
 H         -1.2359556442       -3.0866371639        2.0902130960
 H         -1.9079135949       -4.5966221247        0.2628592034
 H         -1.5179977611       -3.9402888873       -2.0847303576
 H         -0.4669008570       -1.7655295521       -2.5944642386
