  42
        -77.27396955
 C          2.6250239981       -2.8243533817        1.3772702562
 N          2.5286777234       -2.5232126212       -0.0329357922
 N          1.6216742458       -2.9715107689       -0.8241235330
 O          0.7385564343       -3.7101270192       -0.3360900616
 C          3.4943285422       -1.5975175224       -0.6245181645
 O          4.7926814508       -2.0049534559       -0.3488170540
 C          3.3095273740       -0.1820540943       -0.0625544850
 C          1.9183045423        0.3942105481       -0.3494904217
 O          1.0076128428       -0.2846065965        0.5158779080
 C         -0.3201331761       -0.1820378333        0.3051214910
 C         -1.1278371537       -0.9808055800        1.1217845598
 C         -2.4964231229       -0.9671914549        0.9837688483
 C         -3.0817430568       -0.1494392137        0.0215364746
 C         -4.5651669220       -0.1038043043       -0.1297141056
 F         -5.1960021126       -1.1894362923        0.3525863314
 F         -5.1293404127        0.9511200510        0.5154964831
 F         -4.9685155299        0.0194140517       -1.4112952321
 C         -2.2901573409        0.6580476644       -0.7845593283
 C         -0.9162024244        0.6443056236       -0.6464701509
 C          1.9222415200        1.8892977748       -0.1151067234
 C          1.6749010355        2.4032695207        1.1498783757
 C          1.6982168598        3.7704398799        1.3632806954
 C          1.9780846179        4.6320857681        0.3164792799
 C          2.2323297290        4.1231062791       -0.9465693459
 C          2.2025557239        2.7570805711       -1.1629914051
 H          3.6717660380       -2.7812553567        1.6656223568
 H          2.0407865780       -2.1028809940        1.9481869888
 H          2.2112872689       -3.8202810462        1.5376440268
 H          3.2702370746       -1.5988938650       -1.6998687430
 H          3.4838499865       -0.1924485763        1.0122449055
 H          4.0644621786        0.4515422696       -0.5261296073
 H          1.6489770199        0.1775015706       -1.3928626004
 H         -0.6592908317       -1.6202550683        1.8513297174
 H         -3.1129763243       -1.5923899894        1.6095585831
 H         -2.7511251570        1.2942279024       -1.5237230359
 H         -0.3229569180        1.2882464178       -1.2731977039
 H          1.4542816835        1.7296789107        1.9641954967
 H          1.4993738326        4.1622079941        2.3490235464
 H          1.9967966923        5.6980620602        0.4835864595
 H          2.4500674034        4.7916231447       -1.7652669953
 H          2.3956890727        2.3613524739       -2.1492589862
 H          5.0588048937       -2.7455823519       -0.9124730197
