  20
        -37.69473836
 C          1.2199450664       -0.2471981367       -1.5841757971
 N          1.4485787964       -0.1970270751       -0.1568719258
 N          2.2595559999        0.6013977844        0.4292443563
 O          2.9042713586        1.4140555585       -0.2776178688
 C          0.6614788730       -1.0821527830        0.7281671736
 O          0.0481325752       -2.0752384774        0.0006458397
 C         -0.3019923074       -0.2457281837        1.5926945666
 C         -1.0655261385        0.8641148049        0.8688367193
 C         -2.1391933697        0.4465430594       -0.1685128662
 O         -1.9651224073       -0.6034756748       -0.8353040571
 O         -3.1035164633        1.2198202763       -0.3033930709
 H          1.4802027899       -1.2383343922       -1.9509841505
 H          0.1679023830       -0.0555014372       -1.7954391543
 H          1.8492407398        0.5163607912       -2.0400547079
 H          1.3853285486       -1.5756842104        1.3904007068
 H         -1.0105563115       -0.9438053745        2.0414822023
 H          0.2852472547        0.2204855908        2.3844270823
 H         -1.5831622415        1.4827218246        1.6043905780
 H         -0.3700372373        1.5204816272        0.3360781979
 H         -0.7748561714       -1.6833955788       -0.4074319732
