  42
        -66.53045749
 C         -5.6306754512        1.0069917779        0.8644774611
 C         -4.5708824838       -0.0786919097        0.7473660149
 C         -4.0238911138       -0.4770442465        2.1184618373
 N         -3.4704777048        0.3687442817       -0.0978570906
 N         -3.1908060208        1.6163690562       -0.1339352686
 O         -2.2132977536        1.9632179876       -0.8421453531
 C         -2.6833546203       -0.5956955710       -0.8926718945
 O         -3.3475892662       -1.7795534466       -1.0831906569
 C         -1.2983416833       -0.7991686761       -0.2255913492
 O         -1.4154474286       -1.9153275387        0.6217177427
 C         -0.2199359532       -1.0159037107       -1.2964821349
 O          1.0658215551       -1.1181881956       -0.7258064408
 C          1.7779464276        0.0243669785       -0.4553969067
 C          1.2900149584        1.3034924845       -0.5528075785
 C          2.1141280602        2.3978042577       -0.2439276209
 C          3.4039161283        2.2188017640        0.1625507717
 C          3.9398425880        0.9178672127        0.2712880063
 C          5.2702658617        0.6910300340        0.6811651480
 C          5.7728057830       -0.5773266207        0.7683222278
 C          4.9678231982       -1.6791082225        0.4441419684
 C          3.6723752116       -1.4942424680        0.0464084936
 C          3.1252026974       -0.1985115632       -0.0447639797
 H         -5.9829440738        1.3048330306       -0.1188485476
 H         -6.4693098371        0.6245780988        1.4375321923
 H         -5.2251311826        1.8804352269        1.3647983453
 H         -4.9906400846       -0.9553004060        0.2444207448
 H         -3.2341512903       -1.2168876242        2.0213205613
 H         -3.6239254712        0.3984700282        2.6238428619
 H         -4.8247938871       -0.8956494385        2.7189270109
 H         -2.5476448160       -0.1032997837       -1.8674103886
 H         -1.0441733587        0.0922154191        0.3645826386
 H         -0.3961173127       -1.9741060920       -1.7928199606
 H         -0.2617406364       -0.2124641927       -2.0375253077
 H          0.2741078938        1.5085103592       -0.8561351319
 H          1.6958122198        3.3891730908       -0.3307493453
 H          4.0296866333        3.0644376135        0.4037525834
 H          5.8856261449        1.5449345902        0.9233663172
 H          6.7927853386       -0.7388634771        1.0828291952
 H          5.3788340185       -2.6750181084        0.5090511296
 H          3.0489066427       -2.3350957725       -0.2131319331
 H         -3.0558338825       -2.4054457386       -0.3914854562
 H         -0.5306725999       -2.2425606891        0.8387550091
