  20
        -37.69833812
 C         -1.0378999627       -1.4590371553       -1.2492258722
 N         -1.4550922286       -0.4002527502       -0.3662878542
 N         -2.4182318513        0.3475046426       -0.7552908421
 O         -2.8027491039        1.2528708830        0.0261170173
 C         -0.8139746840       -0.2587210423        0.9565973788
 O         -0.1683813757       -1.4198125165        1.3176497585
 C          0.0638251198        1.0068473527        0.9966884285
 C          1.0283947239        1.1937940314       -0.1758122040
 C          2.2357638540        0.2226978835       -0.2397434085
 O          3.3438961701        0.7234142743       -0.4935188268
 O          2.0221200622       -1.0043625701       -0.0741454562
 H         -1.2874497900       -2.4214550475       -0.8027222527
 H         -1.5560824513       -1.3273143826       -2.1938557529
 H          0.0436491827       -1.4163222877       -1.3851789976
 H         -1.6474353858       -0.1129858356        1.6640430848
 H         -0.6089911185        1.8677798343        1.0227529732
 H          0.6225963320        0.9745901225        1.9339618193
 H          0.4938018824        1.0999173882       -1.1255921881
 H          1.4476306154        2.2009865155       -0.1328465266
 H          0.7130074533       -1.4304561800        0.8480911200
