  42
        -77.27417139
 C         -2.8713557110       -3.0665124932       -0.4948636160
 N         -2.9742860686       -1.8704556257        0.3104071920
 N         -2.4390183266       -1.7208261562        1.4667892403
 O         -1.7507136384       -2.6650822770        1.9135820369
 C         -3.7090512619       -0.7225575540       -0.2184215472
 O         -5.0142132666       -1.0901889231       -0.5300694475
 C         -3.0590071805       -0.1937964131       -1.5021949611
 C         -1.6593477260        0.4029905722       -1.2920505659
 O         -0.8281530877       -0.6533190316       -0.8135912851
 C          0.4923129688       -0.4472646641       -0.6359683001
 C          1.1764471588        0.7172194159       -0.9818524272
 C          2.5385760460        0.8062117995       -0.7699528615
 C          3.2300428142       -0.2622480698       -0.2156906456
 C          4.6951673322       -0.1551230646        0.0448051144
 F          4.9787284760        0.2513471556        1.3099173054
 F          5.3535011576       -1.3221730555       -0.1029468884
 F          5.3242805318        0.7258087786       -0.7559317628
 C          2.5529722054       -1.4250954704        0.1439670125
 C          1.1970558971       -1.5151240061       -0.0682909722
 C         -1.7047194000        1.5931389972       -0.3582215878
 C         -2.0226903143        2.8457556538       -0.8703603187
 C         -2.0918922905        3.9450451740       -0.0341124376
 C         -1.8379849371        3.8039051406        1.3205198503
 C         -1.5198827529        2.5588023781        1.8349212144
 C         -1.4564522609        1.4554441469        1.0009265051
 H         -2.7818838863       -3.9185088811        0.1802261922
 H         -3.7651034213       -3.1460812271       -1.1074836042
 H         -1.9775518063       -3.0187987558       -1.1171936691
 H         -3.6638687198        0.0423944876        0.5675578024
 H         -3.0064928578       -1.0023959692       -2.2295730940
 H         -3.7164895141        0.5808534138       -1.8948265097
 H         -1.2894495633        0.7275917819       -2.2755002751
 H          0.6591360801        1.5625295344       -1.4025565736
 H          3.0667645848        1.7072089281       -1.0390096399
 H          3.0917769588       -2.2489673663        0.5843504245
 H          0.6527934450       -2.4007440411        0.2186354711
 H         -2.2137524980        2.9585586725       -1.9272180081
 H         -2.3396823313        4.9137605356       -0.4397547223
 H         -1.8869447827        4.6619273091        1.9731215204
 H         -1.3218496810        2.4399605540        2.8891386037
 H         -1.2155397091        0.4845835896        1.4097065263
 H         -5.5540993444       -1.1779161778        0.2680566207
