  30
        -40.24663587
 C         -3.1970152135       -2.1635979674       -0.4681275835
 C         -2.6504720566       -0.7406775436       -0.4516097118
 C         -2.1743329397       -0.3415882018        0.9439155118
 C         -1.5690490341        1.0635716180        0.9705891264
 N         -0.3404921045        1.1517887009        0.2112804516
 N         -0.3816755007        1.8510840456       -0.8624299813
 O          0.6735573563        1.9599001515       -1.5304353493
 C          0.8810366043        0.4919785944        0.7165592426
 O          1.9063667036        1.4248365155        0.8536967242
 C          1.2569022753       -0.6930926933       -0.1818466988
 C          2.3902075121       -1.5076664183        0.4380893058
 C          2.8415562812       -2.6278342054       -0.4903759049
 H         -2.4298945596       -2.8734709769       -0.1669570798
 H         -4.0366194667       -2.2559264512        0.2162593404
 H         -3.5359144683       -2.4291495844       -1.4659485636
 H         -1.8243809594       -0.6597499953       -1.1619474437
 H         -3.4280687484       -0.0485027999       -0.7785060500
 H         -3.0221377042       -0.3520122708        1.6290735855
 H         -1.4445630310       -1.0672899267        1.3059311195
 H         -2.2612426346        1.7766667189        0.5216240010
 H         -1.3532458596        1.3614669840        1.9989240195
 H          0.6623228685        0.1452378753        1.7309883086
 H          0.3798530732       -1.3252013043       -0.3243182039
 H          1.5638175335       -0.3115946922       -1.1588480302
 H          3.2295637433       -0.8442337011        0.6542720740
 H          2.0498298717       -1.9312184805        1.3850818172
 H          2.0158854501       -3.3026448458       -0.7036034281
 H          3.2031582735       -2.2210589918       -1.4319991125
 H          3.6444079701       -3.1983588316       -0.0316075481
 H          2.1383388589        1.7609451304       -0.0301006471
