  27
        -47.44717101
 C         -2.3927174481        1.6284926071        0.7191765251
 N         -1.7816083334        0.7378532657       -0.2416669355
 N         -0.9281956077        1.0755948313       -1.1417395213
 O         -0.6131978425        2.2813008146       -1.2418121425
 C         -2.0238290180       -0.6950189484       -0.1253393296
 O         -2.0555912870       -1.3067973708       -1.3614667324
 C         -0.9652482583       -1.3357885998        0.8296350364
 O         -1.2675902035       -0.8833816876        2.1275979925
 C          0.4271715140       -0.9868825036        0.3640609282
 C          1.0536484782       -1.7684168999       -0.6004906419
 C          2.3037931241       -1.4084998618       -1.0679266206
 C          2.9390865340       -0.2785181432       -0.5844569490
 C          2.3200433835        0.5022785591        0.3845987385
 O          2.8939428566        1.6173223020        0.9042950560
 C          1.0620754426        0.1415509038        0.8561094973
 H         -1.9145011268        2.6022843276        0.6128405951
 H         -3.4582652627        1.7152840073        0.5124431562
 H         -2.2386628497        1.2294021630        1.7195557391
 H         -3.0103000743       -0.8294387382        0.3310878219
 H         -1.1216360768       -2.4216008949        0.7504274538
 H          0.5645761986       -2.6535291686       -0.9761770770
 H          2.7916344258       -2.0113263502       -1.8179494420
 H          3.9130679714       -0.0016861743       -0.9599837400
 H          0.5927744815        0.7603133590        1.6055990354
 H         -1.2442288498       -1.0928719325       -1.8493723710
 H         -0.7132233654       -1.3490398592        2.7686449775
 H          3.7501310256        1.7903863197        0.4842826232
