  46
        -69.16289786
 C         -3.4564196819       -1.9211087401       -1.9756138574
 C         -3.7169330414       -0.5073623302       -1.4708244973
 O         -3.2106567388       -0.2918045012       -0.1506069568
 C         -1.8444134537       -0.0015203656       -0.0779722454
 C         -1.4463992016       -0.1613452953        1.4123468512
 N         -0.1675408590       -0.8029517445        1.5870110248
 N         -0.1825923063       -2.0817339939        1.7541901560
 O          0.9107552552       -2.6679237961        1.8745300365
 C          1.0562474099        0.0006586400        1.5282614352
 O          0.8927606759        1.1818736085        2.2301384838
 C          1.4042850608        0.3800692238        0.0590861675
 O          1.3205733480       -0.6975140030       -0.8282453957
 C          2.3532071224       -1.6872747317       -0.7305842664
 C          2.4137396295       -2.4472011639       -2.0446014764
 O          2.6621516742        0.9738150453        0.1102881936
 C          2.8820561873        2.0334621582       -0.8245612801
 C          2.9741754463        1.5674479185       -2.2710925648
 O         -1.5506336568        1.2525527929       -0.6257615886
 C         -2.2492529270        2.3781679844       -0.0666923406
 C         -1.2680831306        3.3960316551        0.5011833833
 H         -3.8620310773       -2.6448490386       -1.2742571454
 H         -3.9342681584       -2.0504914455       -2.9414654336
 H         -2.3902577357       -2.1043641281       -2.0867553901
 H         -3.2813391963        0.2339458337       -2.1500462404
 H         -4.7895347112       -0.3273006306       -1.3794549009
 H         -1.2485386064       -0.6985861161       -0.6870495114
 H         -1.4058306342        0.8158088289        1.8934495803
 H         -2.2038371842       -0.7891097007        1.8812072242
 H          1.8622825651       -0.6322630011        1.9211341178
 H          0.6436934925        1.0902087041       -0.2942251459
 H          3.3039300517       -1.1853113360       -0.5225162635
 H          2.1277871173       -2.3721304269        0.0989324709
 H          1.4577211708       -2.9245358769       -2.2394349103
 H          2.6375403218       -1.7664484643       -2.8609848341
 H          3.1861765284       -3.2069382987       -1.9833992794
 H          2.0767196958        2.7696945079       -0.7119505992
 H          3.8249630920        2.4741295248       -0.4964573323
 H          3.7904813010        0.8591262446       -2.3877720209
 H          2.0468628621        1.0851775995       -2.5721942519
 H          3.1535577696        2.4250458988       -2.9120919348
 H         -2.8241028307        2.8278364756       -0.8833009869
 H         -2.9506695762        2.0263109522        0.6939442477
 H         -0.6186870415        2.9411239170        1.2453491647
 H         -0.6460520356        3.7917194393       -0.2971767057
 H         -1.8197719723        4.2125926832        0.9563458992
 H          1.1575461350        1.0825870427        3.1574638762
