  18
        -27.58793065
 C         -2.6140612553        0.3760251356       -0.3149975985
 C         -1.6974032567       -0.3971105527        0.6271343591
 N         -0.3121833086       -0.3420064033        0.2089689219
 N          0.2118990784       -1.4493723369       -0.1673823410
 O          1.4156285924       -1.4403586162       -0.5180102821
 C          0.4209789499        0.9404645629        0.2752123237
 C          0.6950201689        1.4562110437       -1.1365810681
 O          1.5752507011        0.7957773059        1.0427577741
 H         -3.6418099274        0.2459724118        0.0084348892
 H         -2.3826097754        1.4372173859       -0.3091741920
 H         -2.5187767337       -0.0025661368       -1.3288324087
 H         -1.7649261620        0.0069503991        1.6398654447
 H         -1.9709954267       -1.4523584411        0.6390509059
 H         -0.2111808867        1.6404632848        0.8289345322
 H          1.2869055624        0.7305103007       -1.6910623457
 H         -0.2380454831        1.6318438053       -1.6618470266
 H          1.2530721021        2.3853203036       -1.0671730257
 H          2.1841794617        0.1941519470        0.5791066141
