  24
        -33.91826011
 C         -1.4439612583        1.0726806434       -1.0766155704
 N         -1.0514140165        0.2745582980        0.0639430118
 N         -1.8311223368       -0.5771419143        0.6267667520
 O         -2.9623817513       -0.7359579557        0.1115683440
 C          0.2846782973        0.4115325670        0.6528363921
 O          0.6506926232        1.7480202415        0.6916018839
 C          1.3674198417       -0.4068606737       -0.1059658261
 C          0.9252612988       -1.8657330502       -0.2111439893
 C          1.6378941320        0.1698510392       -1.4959262517
 C          2.6468068770       -0.3185128980        0.7331301693
 H         -1.5360195416        0.4390135909       -1.9599366275
 H         -2.4285844240        1.4985004379       -0.8726821266
 H         -0.7036750649        1.8502897051       -1.2273452460
 H          0.1873637833       -0.0282497498        1.6551191683
 H          0.7329574457       -2.2829796370        0.7741737056
 H          0.0170505101       -1.9655867763       -0.8015047217
 H          1.7058742181       -2.4501752764       -0.6896895855
 H          0.8048874591       -0.0125579561       -2.1677174583
 H          1.8180485649        1.2389544914       -1.4283646168
 H          2.5206285291       -0.3028840505       -1.9178932188
 H          2.4870517381       -0.7358293945        1.7241220877
 H          3.4443125900       -0.8749561170        0.2497156059
 H          2.9553052278        0.7182051277        0.8343849012
 H          0.1831375825        2.2141404543        1.3983418753
