  42
        -77.57099173
 O         -6.5746051395       -0.1713202236       -1.5179032699
 N         -5.7485436174       -0.9768608028       -1.0269196659
 N         -4.5660068142       -0.5483000188       -0.7797136055
 C         -4.0913394102        0.8073709628       -0.9604394409
 C         -3.5935478583        1.3591466168        0.3875864825
 N         -2.5835469942        0.4810238467        0.9362857483
 C         -1.2462723200        0.6626932516        0.6677708464
 C         -0.3860582142       -0.4025684354        0.4038216297
 C          0.9856956136       -0.2345673548        0.1940614122
 C          1.5432730565        1.0569752702        0.2121255718
 C          0.6940158724        2.1329554431        0.4919974637
 C         -0.6363738475        1.9376347403        0.7226922499
 F         -1.3811904544        3.0415049654        1.0476765736
 C          2.9615100427        1.3007753623       -0.0421465764
 O          3.4538091925        2.4396244235        0.0608151809
 C          3.7016064236        0.1122126674       -0.3895881787
 C          5.1684298651        0.1821842573       -0.7975655878
 O          5.4855347564        1.0202524304       -1.6661840568
 O          5.9350065805       -0.6443913499       -0.2516478847
 C          3.1030694811       -1.1039033820       -0.3552882474
 N          1.8012230401       -1.3136508502       -0.0502717223
 C          1.2892079400       -2.6569425013       -0.0137040249
 C          2.0781068728       -3.7128050098        0.7007133178
 C          0.7957893435       -3.2159964394        1.2909342879
 C         -3.1280430871       -0.8417631461        1.1457304442
 C         -3.6242151350       -1.4572414478       -0.1752620371
 H         -3.2734832389        0.8058807493       -1.6861462865
 H         -4.9229366362        1.4026234845       -1.3450513714
 H         -3.2163153732        2.3650753745        0.2329929503
 H         -4.4290493391        1.4087542817        1.0911961865
 H         -0.7801001180       -1.3998112071        0.3464906548
 H          1.1229151379        3.1221227421        0.5371682692
 H          3.6913465387       -1.9804539121       -0.5873438838
 H          0.7745712917       -2.9369790583       -0.9262389514
 H          2.1077538322       -4.6982379539        0.2645253182
 H          3.0019782734       -3.4157926797        1.1724704835
 H          0.8613005188       -2.5790580907        2.1586967612
 H         -0.0666978250       -3.8628193621        1.2713312292
 H         -2.3902094069       -1.4841494205        1.6195394423
 H         -3.9785364835       -0.7353078489        1.8243513484
 H         -4.1298447442       -2.4063650323       -0.0044655204
 H         -2.7849693797       -1.5967857999       -0.8613815162
