  25
        -37.96042121
 C          1.4619628795       -3.0491640817       -0.5423048453
 O          0.9965577914       -1.7653758035       -0.1826033095
 C         -0.1859372139       -1.8046084018        0.5913714323
 C         -0.5990868808       -0.3851386639        0.9770641242
 N         -1.0743445846        0.3668693976       -0.1688968828
 C         -0.1091845065        0.9718145353       -1.0540475940
 C          0.5940325979        2.1849028066       -0.4159864737
 O          1.4634245851        1.8768683331        0.6495869356
 C          2.6788153665        1.2549354180        0.2656792213
 N         -2.3118542141        0.5376259369       -0.4592802389
 O         -3.1686067348        0.0130865618        0.2917022706
 H          2.3642943773       -2.8953027267       -1.1282384395
 H          1.6936112550       -3.6423735142        0.3480161298
 H          0.7154554035       -3.5805383208       -1.1419007681
 H         -0.9937613980       -2.2890347201        0.0219104017
 H         -0.0137942468       -2.3857600831        1.5077568504
 H         -1.4293133181       -0.4408420115        1.6868204418
 H          0.2437427726        0.1518240111        1.4126110516
 H          0.6265164631        0.2114795836       -1.3224450094
 H         -0.6479306729        1.3077919030       -1.9393236336
 H          1.1446883102        2.7104956542       -1.2066930842
 H         -0.1524658090        2.8586486299        0.0101619900
 H          3.1686365159        1.8241665135       -0.5294648458
 H          3.3049573266        1.2549619154        1.1546889310
 H          2.5143841826        0.2255101099       -0.0636816003
