  31
        -53.75465544
 O         -1.3133786036       -1.0698024126       -2.5459851231
 N         -1.7136907130       -0.0592096861       -1.9284510367
 N         -2.2688248213       -0.2266672290       -0.7835267428
 C         -2.3770491131       -1.4927198285       -0.0774371607
 C         -1.5843484816       -1.4054718841        1.2402133997
 C         -2.1859893684       -0.2776171882        2.0863803872
 C         -1.7401299801        0.9461936844        1.2777608722
 C         -0.3264395745        0.5748469322        0.9197889404
 C          0.7308064743        1.3652646765        0.5899937271
 C          1.9520167557        0.7394965152        0.2457293107
 N          3.0133339195        1.5033638159       -0.0876321342
 C          4.1216995486        0.8857190748       -0.4069517366
 C          4.2240205673       -0.5179434905       -0.3999774539
 N          3.2155414642       -1.2877941342       -0.0793473944
 C          2.0535168853       -0.6834185855        0.2454393184
 C          0.9300502123       -1.4750392134        0.5808156401
 C         -0.2268737380       -0.8422951265        0.9120670338
 C         -2.5920073025        0.9863687940       -0.0235983914
 O         -2.4375444693        2.1272255500       -0.7747928890
 H         -3.4293751144       -1.7066006659        0.1175359924
 H         -1.9632592266       -2.2536739594       -0.7454812360
 H         -1.5604595965       -2.3789602005        1.7253635996
 H         -3.2660634581       -0.3512936191        2.1891111620
 H         -1.7333730939       -0.2616964913        3.0768837334
 H         -1.8381826565        1.9020112050        1.7889137263
 H          0.6818503648        2.4419399857        0.5846767028
 H          4.9632454302        1.5082834002       -0.6758167123
 H          5.1481533859       -1.0146662929       -0.6597942685
 H          1.0264372845       -2.5483120780        0.5571697676
 H         -3.6566243319        0.9464559888        0.2415382375
 H         -1.5501701495        2.1676776670       -1.1607063093
