  43
        -81.63837019
 O         -6.5419642835       -0.0449360520       -1.3108007487
 N         -5.7729141435        0.7515119340       -0.7347648716
 N         -4.5396547103        0.4061470881       -0.5981831120
 C         -3.9492676290       -0.8482347132       -1.0157081800
 C         -3.3936520747       -1.5730303579        0.2210630794
 N         -2.4248015721       -0.7248041045        0.8759939789
 C         -1.0769297699       -0.8378855197        0.6068208523
 C         -0.2639649915        0.2681044607        0.3839856059
 C          1.1155030348        0.1571925986        0.1875804271
 C          1.7232477241       -1.1121964248        0.1876569842
 C          0.9136694628       -2.2309121700        0.4154609904
 C         -0.4272132346       -2.0922561176        0.6265841429
 F         -1.1478769196       -3.2276845186        0.8920739714
 C          3.1558949207       -1.2917468711       -0.0420127158
 O          3.6930638712       -2.4116440636        0.0479254529
 C          3.8531491363       -0.0675094794       -0.3498247710
 C          5.3298068639       -0.0693191627       -0.7267352590
 O          6.0509643719        0.7737740838       -0.1449923297
 O          5.6998517507       -0.8729580103       -1.6070064879
 C          3.2037682994        1.1227448295       -0.3076855881
 N          1.8901843718        1.2723318640       -0.0236315256
 C          1.3114200197        2.5875059059        0.0174504044
 C          0.7911184256        3.1138414845        1.3248871982
 C          2.0417987132        3.6836555561        0.7321636869
 C         -3.0103194927        0.5260372387        1.2885343452
 C         -3.6655888206        1.3163735310        0.1323315248
 O         -2.6854726521        1.8433816897       -0.7001720947
 H         -4.7288043894       -1.4333280794       -1.5080213772
 H         -3.1355051341       -0.6361449659       -1.7135211021
 H         -4.2090942444       -1.7845109783        0.9193280624
 H         -2.9509296904       -2.5138184512       -0.0928069023
 H         -0.7190682504        1.2387690309        0.3126541918
 H          1.3815872956       -3.2030758482        0.4357582747
 H          3.7597380899        2.0263831287       -0.5142175037
 H          0.7726920283        2.8368143016       -0.8894278525
 H         -0.1088966231        3.7068953469        1.3078545657
 H          0.8948754119        2.4783684419        2.1899536038
 H          2.9817217597        3.4390035113        1.2023293397
 H          2.0144681483        4.6701124147        0.2981346502
 H         -3.7982635087        0.2948798486        2.0116375196
 H         -2.2601241345        1.1496985122        1.7688920276
 H         -4.3148511532        2.0983993697        0.5475157826
 H         -3.0703438669        2.4754485830       -1.3235913565
