  25
        -43.33467859
 C         -3.3742827356       -1.3516840023        0.2981570952
 N         -2.2825012596       -0.4132382820        0.4333455849
 C         -1.2504995163       -0.3933556686       -0.4251006102
 O         -1.2227495122       -1.0104330456       -1.4880798245
 C         -0.1682066211        0.5653994915       -0.0802497347
 C          1.1966872965        0.3523365812       -0.0071162369
 N          1.8796746215       -0.8605097117       -0.0060394192
 C          3.2713447605       -0.8526679033       -0.3893188072
 N          1.3908201684       -1.9856493401        0.3931892986
 O          0.1944846917       -2.0087520736        0.7724717302
 N          1.8475422152        1.5314153756        0.1843038623
 C          0.9073174089        2.4400539313        0.2084508111
 N         -0.3271558593        1.9178212274        0.0545103633
 C         -1.5669165480        2.6483912888        0.0255026822
 H         -4.3092146276       -0.8527316519        0.5440297252
 H         -3.3938368210       -1.6952280848       -0.7343843903
 H         -3.2281026862       -2.2130945968        0.9516070407
 H          3.7815956001       -0.0616856923        0.1567304025
 H          3.6882495800       -1.8269603515       -0.1534571618
 H          3.3531491393       -0.6560557568       -1.4575099453
 H          1.0920642069        3.4866009855        0.3359670695
 H         -1.3722616086        3.6591713727       -0.3257193886
 H         -2.2639402683        2.1549317683       -0.6488028097
 H         -2.0059468462        2.6959027040        1.0226581881
 H         -2.1449986365       -0.0200748643        1.3525275630
