  89
       -145.14910059
 C         -9.0078247697       -3.6417901768        2.4132708873
 C         -8.3509460485       -3.8172889953        1.0491385353
 C         -6.8425291377       -3.5870947353        1.1128179324
 C         -6.1797181687       -3.7615118021       -0.2517344913
 C         -4.6717622489       -3.5367231888       -0.1769109171
 C         -4.0221282364       -3.6996749000       -1.5471985188
 O         -2.5894900305       -3.6126718005       -1.4669954660
 C         -2.0592116656       -2.3908610340       -1.4077839384
 O         -2.7078679980       -1.3622832923       -1.4436153508
 N         -0.7011948898       -2.3670082815       -1.3108293141
 C          0.2162232140       -3.4064028749       -1.1048441363
 N         -0.0146881755       -4.6410359778       -1.0250972267
 C          1.6037561208       -2.9154635074       -0.9586763550
 C          2.4553046821       -3.5383500615       -0.0518504589
 C          3.7485168920       -3.0837601292        0.1193804617
 C          4.2035426515       -2.0072074142       -0.6347081886
 N          5.5268925297       -1.5265436424       -0.4483700105
 N          6.6109758448       -2.2401551790       -0.4593018389
 O          6.5173301124       -3.4637278544       -0.6372029885
 C          5.7653419205       -0.0724208720       -0.2718681719
 O          6.7642352873        0.1313090600        0.6615120461
 C          4.5087187923        0.6083649890        0.1809812663
 N          3.8949077413        1.4938711131       -0.5612720395
 C          2.8091862402        1.8917076142        0.1731146790
 C          1.8077782154        2.8082646695       -0.1226167402
 C          0.8256945626        3.0109615280        0.8317949695
 C         -0.2207377741        4.0549071119        0.6421884249
 O         -0.3177088255        4.9715297997        1.4523556731
 N         -1.0354207412        3.9420932530       -0.4463340502
 C         -1.1918759399        2.6847200383       -1.1667094835
 C         -1.9756032782        1.6443875494       -0.3554568736
 C         -1.0812539889        0.6449174524        0.3252005530
 O         -0.0956637690        0.1519781483       -0.1925110958
 O         -1.5183608875        0.3261095134        1.5289409284
 C         -0.8533401493       -0.7104785207        2.2724373741
 C         -1.7214342851       -1.9573970504        2.3298438570
 C         -1.9977811887        4.9340458292       -0.7218043534
 C         -1.7354189107        6.2889567662       -0.5176725139
 C         -2.7260443395        7.2002458810       -0.8341019614
 C         -3.9320121193        6.7447744097       -1.3487948745
 C         -4.0809994163        5.3817364678       -1.5342050096
 N         -3.1438046138        4.4987732037       -1.2312702224
 C          0.8583178577        2.3464988190        2.0679651042
 C          1.8366638177        1.4264309160        2.3716314618
 C          2.8096555088        1.2007130056        1.4086061239
 N          3.9134947384        0.3919865863        1.3847058181
 C          4.3225402044       -0.5001028770        2.4365198440
 C          3.3757986276       -1.4084336907       -1.5786854873
 C          2.0779502026       -1.8546647574       -1.7273405698
 H        -10.0797832479       -3.8091833212        2.3456851463
 H         -8.5938843172       -4.3482881625        3.1290361597
 H         -8.8401625631       -2.6353138991        2.7898767714
 H         -8.5462861732       -4.8261662028        0.6796207743
 H         -8.7929824182       -3.1138805553        0.3402972396
 H         -6.6477821234       -2.5779042937        1.4821068626
 H         -6.4013142316       -4.2907529227        1.8218590952
 H         -6.3770877018       -4.7684763255       -0.6241882958
 H         -6.6148704529       -3.0528469176       -0.9590496845
 H         -4.4669098869       -2.5288741397        0.1917316191
 H         -4.2236208056       -4.2518628710        0.5159292791
 H         -4.2100552798       -4.6914891038       -1.9589716024
 H         -4.3828856086       -2.9303526669       -2.2356643916
 H         -0.9847051097       -4.9142985951       -1.1364387512
 H          2.0869348350       -4.3734631022        0.5201385566
 H          4.4044298739       -3.5611343711        0.8305453482
 H          6.0222340224        0.3544415280       -1.2533708762
 H          1.8186590285        3.3537469566       -1.0523543683
 H         -1.7348674309        2.9212296841       -2.0794298304
 H         -0.2136262531        2.2742609913       -1.4183231796
 H         -2.6243991941        2.1193406501        0.3775476347
 H         -2.5994485756        1.0501012676       -1.0287192427
 H          0.1107268005       -0.9159796977        1.7972918604
 H         -0.6996319358       -0.2996339544        3.2715464951
 H         -2.6826191380       -1.7213417183        2.7774063775
 H         -1.8907576793       -2.3483219204        1.3290354296
 H         -1.2239352680       -2.7162712793        2.9244602232
 H         -0.7876332092        6.6119839167       -0.1226954160
 H         -2.5526255961        8.2552022991       -0.6879861258
 H         -4.7250600319        7.4271839241       -1.6047491172
 H         -4.9883738916        4.9605596871       -1.9439455335
 H          0.0839388993        2.5745738052        2.7852138001
 H          1.8459114810        0.9138041301        3.3197459333
 H          3.7293687574       -1.4162616133        2.4052857503
 H          5.3767661735       -0.7359000761        2.3182116845
 H          4.1745515207       -0.0086651273        3.3964971280
 H          3.7417049695       -0.5973197740       -2.1863261226
 H          1.4466966628       -1.3876430974       -2.4662584260
 H         -0.3260356287       -1.4242156409       -1.1978582463
 H          7.6180537065       -0.1809428675        0.3231386343
