  22
        -33.34311593
 C         -2.5691936300       -0.2434358698       -0.6873924934
 N         -1.7402854545       -0.6466182941        0.4657272616
 C         -0.6953374118       -1.6398089637        0.1153811867
 C          0.4008302347       -1.0050229379       -0.7311109406
 N          0.9665842236        0.1228973043       -0.0111628402
 N          2.2074030330        0.3106980610        0.2791647233
 O          3.0256874392       -0.5536934948       -0.0778842767
 C          0.0173758128        1.1584535277        0.3865206849
 O         -0.4784562389        1.8174912834       -0.7328593059
 C         -1.1388552066        0.5110675987        1.1676572663
 H         -1.9976478183        0.3804662653       -1.3670729016
 H         -2.9287479593       -1.1248484848       -1.2104866701
 H         -3.4221355328        0.3317148189       -0.3379356320
 H         -0.2584075340       -2.0290981303        1.0372596543
 H         -1.1449178001       -2.4640387992       -0.4381624381
 H          1.2113980406       -1.7156338438       -0.9108362164
 H          0.0191145835       -0.6528414574       -1.6915432763
 H          0.5599868486        1.8327493426        1.0599231763
 H         -1.9008715808        1.2765279265        1.3198144952
 H         -0.7532181631        0.1834154286        2.1336234726
 H         -2.3725540444       -1.1035300920        1.1334454706
 H          0.1195142721        2.5073667619       -1.0465749012
