  18
        -27.58793070
 C         -2.6140526109        0.3759412169        0.3151260610
 C         -1.6974153250       -0.3970059324       -0.6272353343
 N         -0.3122225279       -0.3419555160       -0.2090088877
 N          0.2119241886       -1.4493068171        0.1673206356
 O          1.4156293851       -1.4402770624        0.5180221864
 C          0.4209537625        0.9404794460       -0.2752079229
 C          0.6950885550        1.4560059856        1.1366618006
 O          1.5751936705        0.7957468465       -1.0427873279
 H         -2.5188270958       -0.0029598409        1.3288494768
 H         -2.3825045369        1.4371037807        0.3095870641
 H         -3.6418002857        0.2460432179       -0.0083767743
 H         -1.9709481500       -1.4522144337       -0.6393750934
 H         -1.7648384716        0.0072932641       -1.6399164997
 H         -0.2111387307        1.6405564407       -0.8289460374
 H         -0.2379160099        1.6316370113        1.6621409323
 H          1.2870968891        0.7303935217        1.6911315642
 H          1.2530373467        2.3850988331        1.0671498810
 H          2.1842665648        0.1941442565       -0.5791968849
