  21
        -29.27828880
 C         -3.0947057988       -0.2896362824       -0.4076731996
 N         -1.7719451730       -0.0810779552        0.2042603548
 C         -1.1469504453        1.1717376607       -0.2764666052
 C          0.1927656498        1.3992279918        0.4216044928
 N          1.0495450506        0.2531974487        0.2276599731
 N          2.2145940482        0.4445191994       -0.2734325235
 O          2.9572706714       -0.5466461505       -0.4222967545
 C          0.4748901332       -1.0181264791        0.6332892575
 C         -0.8679428346       -1.2225702439       -0.0625699235
 H         -2.9935966855       -0.3723805303       -1.4869498081
 H         -3.5446949449       -1.2024685154       -0.0267847668
 H         -3.7485542941        0.5476589030       -0.1792007342
 H         -1.0000245450        1.0917325171       -1.3548315108
 H         -1.8078513198        2.0143944011       -0.0733666692
 H          0.6952563496        2.2728300274        0.0073796757
 H          0.0481429127        1.5558180536        1.4951003635
 H          1.1810560318       -1.8027619590        0.3482624547
 H          0.3670576601       -1.0275386799        1.7216580279
 H         -1.3223364107       -2.1461679731        0.2967013956
 H         -0.7218766438       -1.3016068203       -1.1415301960
 H         -1.8997550380       -0.0056129252        1.2220710184
