  50
        -83.54097950
 C         -2.4782994181       -3.2257722259       -0.9934549802
 O         -2.7291464400       -2.0700618382       -0.1937328466
 C         -2.1253952770       -0.9531141491       -0.5501822838
 O         -1.4023264309       -0.8496094314       -1.5254291923
 C         -2.3621087963        0.2209247061        0.4061178748
 C         -3.4137720570       -0.0754144252        1.4926532439
 C         -3.9795941742        1.2079222075        2.0992365263
 C         -2.7661555868       -0.9218591046        2.5853482358
 N         -2.7196563165        1.3589133629       -0.4379207430
 C         -2.0593460742        2.6415261855       -0.2680662802
 C         -0.5714791235        2.4113636257       -0.2696718933
 C          0.0130809625        1.8037475332       -1.3749135957
 C          1.3083236145        1.3373620288       -1.3026850660
 C          2.0471652639        1.4897045622       -0.1338785426
 C          3.3448361223        0.7992985345       -0.0186495683
 C          4.5516173619        1.4822169103       -0.0457835792
 C          5.7518338355        0.7936175029       -0.0036711205
 C          5.7517380274       -0.5901736044        0.0592386864
 C          4.5547984066       -1.2809145840        0.1063150214
 C          3.3431014970       -0.5978666221        0.0795229645
 C          2.0978286631       -1.3422784379        0.2047802971
 N          1.0062839182       -0.9151789426        0.8624313152
 N          0.1515932917       -1.9247334047        0.7890085848
 N          0.6821298218       -2.9112126387        0.1194703148
 N          1.9121351254       -2.5885803293       -0.2601584415
 C          1.5056466682        2.2082418130        0.9230017598
 C          0.1961306211        2.6467534025        0.8627265970
 N         -3.4976313830        1.2265888708       -1.4409406639
 O         -3.9751711853        0.0866022608       -1.6427872067
 H         -1.4212217695       -3.4929295474       -0.9117580096
 H         -3.1145122626       -4.0028098004       -0.5829307000
 H         -2.7227079625       -3.0124045219       -2.0352625628
 H         -1.3888909074        0.4325966893        0.8607734162
 H         -4.2256323427       -0.6406932261        1.0246620159
 H         -3.1810632550        1.7987652413        2.5400977872
 H         -4.5034532598        1.8003390521        1.3535550746
 H         -4.6846631366        0.9454036312        2.8826365376
 H         -2.0521728823       -0.3222244469        3.1450857425
 H         -3.5233276267       -1.2998747765        3.2658005672
 H         -2.2262140265       -1.7597855530        2.1531254284
 H         -2.3822177486        3.2654787086       -1.1026053267
 H         -2.3761123110        3.0862361755        0.6770621807
 H         -0.5700574875        1.6280050770       -2.2669548637
 H          1.7356877098        0.7956964359       -2.1359035933
 H          4.5392660619        2.5598790721       -0.1149006897
 H          6.6850476132        1.3346623764       -0.0278566470
 H          6.6831341659       -1.1352921438        0.0796429144
 H          4.5326967120       -2.3596546926        0.1681575107
 H          2.0898052879        2.3515241569        1.8192793692
 H         -0.2426166754        3.1399323874        1.7169251246
