  22
        -36.13756088
 C         -2.9481677062       -0.2915391596        1.2064869364
 C         -1.7673104163       -0.8443712641        0.4233843549
 O         -2.1416348243       -1.5847470288       -0.6928208238
 N         -0.8619755638        0.2560720024        0.0277173438
 N         -1.4495202736        1.3146136938       -0.4318016882
 O         -0.7520619614        2.2521652715       -0.8614665263
 C          0.5400257125        0.0281230480        0.0635489775
 C          1.0479917477       -1.1716385460       -0.4247038606
 C          2.4118946478       -1.3947626098       -0.3940777660
 C          3.2666541247       -0.4299735589        0.1155446726
 C          2.7557395141        0.7634811232        0.5974160445
 C          1.3923586763        0.9991562848        0.5748668501
 H         -3.4917723319        0.4302695507        0.6046035989
 H         -3.6047390066       -1.1138172991        1.4750884498
 H         -2.6001374752        0.1955619384        2.1115813278
 H         -1.1698390800       -1.5199036891        1.0447547713
 H          0.3765136518       -1.9096514821       -0.8353809268
 H          2.8074699762       -2.3235144959       -0.7740221551
 H          4.3304708788       -0.6072662756        0.1354747746
 H          3.4167927011        1.5170204770        0.9958906718
 H          0.9908683248        1.9279106520        0.9497477959
 H         -2.8298337604       -1.1157128397       -1.1888698853
