  30
        -49.68916540
 O         -1.7954678197        2.7890751858       -0.3830261617
 N         -2.0079014297        1.7587740428       -1.0647394799
 N         -2.4349593175        0.7118766802       -0.4629740390
 C         -2.5859390878       -0.4807800557       -1.2668859396
 C         -1.7737867104       -1.6279399608       -0.6358890493
 C         -2.3264379003       -1.8744329362        0.7732444370
 C         -1.8216446664       -0.6183577622        1.4923989494
 C         -2.6229519120        0.5874538618        0.9716173938
 C         -0.4201348335       -0.5061917857        0.9533854877
 C          0.6775293085        0.0966594466        1.4835179018
 C          1.8697798178        0.1026138217        0.7227966136
 N          2.9736101120        0.6920564699        1.2280536469
 C          4.0502195409        0.6896202964        0.4838664987
 C          4.0773262379        0.0940779954       -0.7906451845
 N          3.0282858237       -0.4947980523       -1.3056296050
 C          1.8980829193       -0.5045269902       -0.5683672338
 C          0.7352305200       -1.1169414305       -1.0912344268
 C         -0.3920547190       -1.1114964257       -0.3304826151
 H         -3.6425778266       -0.7577448771       -1.3075853531
 H         -2.2318273388       -0.2406694602       -2.2693152010
 H         -1.7877735699       -2.4981442227       -1.2884772835
 H         -3.4095289950       -1.9697429958        0.7951245734
 H         -1.8809912906       -2.7674142123        1.2098911677
 H         -1.8780989963       -0.6590057580        2.5786161328
 H         -2.2746237712        1.5248196164        1.4158799642
 H         -3.6868111495        0.4593407938        1.1854063833
 H          0.6776587869        0.5728965755        2.4507530164
 H          4.9261611678        1.1678593050        0.8992037850
 H          4.9746891944        0.0991094237       -1.3931961831
 H          0.7808225581       -1.5605976079       -2.0722630195
