  39
        -61.40878479
 C         -3.7025398057        1.6890118894        0.8872615377
 N         -3.0701563480        0.9069513588       -0.1448068363
 N         -2.7766900244        1.5052926696       -1.2399874662
 O         -2.1567630668        0.8586792031       -2.1178451498
 C         -2.7371385670       -0.4900068462        0.1511936576
 O         -3.8414880341       -1.1667074351        0.6503838122
 C         -1.6374876009       -0.5688057878        1.2359390214
 O         -0.5839041706        0.3393013219        1.0725635264
 C          0.2641066537        0.1180078215       -0.0521338850
 C          0.8483730097       -1.2787262812       -0.0830923654
 C          1.5006504767       -1.7815010187        1.0360223248
 C          2.0506007305       -3.0500743551        1.0099718913
 C          1.9618674210       -3.8221858609       -0.1369765142
 C          1.3160841107       -3.3240652019       -1.2557770670
 C          0.7569992369       -2.0577572419       -1.2276935073
 C          1.4060832572        1.1073235715        0.0007894731
 C          2.1238532600        1.3748356489       -1.1580034341
 C          3.2024327834        2.2395618616       -1.1266183582
 C          3.5720035246        2.8467403837        0.0625860372
 C          2.8565030848        2.5859954978        1.2180672037
 C          1.7794843621        1.7166274617        1.1895441944
 H         -2.9532536948        1.9975427166        1.6169789517
 H         -4.1467567762        2.5668929143        0.4285464929
 H         -4.4574262914        1.0781402956        1.3781768144
 H         -2.3727677294       -0.9165188666       -0.7943055823
 H         -2.0943332106       -0.3231771794        2.1964391283
 H         -1.2810674291       -1.6063816409        1.2633000658
 H         -0.2998351731        0.2869444003       -0.9846230183
 H          1.5675789089       -1.1709969241        1.9240475822
 H          2.5526342058       -3.4350132273        1.8842914106
 H          2.3944345370       -4.8106223505       -0.1589335739
 H          1.2427651725       -3.9218504017       -2.1516234483
 H          0.2460424316       -1.6681283414       -2.0979712985
 H          1.8300877002        0.9041133598       -2.0855009672
 H          3.7532965756        2.4412476321       -2.0327936350
 H          4.4130745356        3.5226763559        0.0856456549
 H          3.1370236024        3.0592019472        2.1467944973
 H          1.2129200510        1.5152761627        2.0847849668
 H         -4.4507222829       -1.4230123841       -0.0573749650
