  30
        -40.74900752
 O         -4.1945952433       -0.5999279688       -0.2639305775
 N         -3.4552252596        0.4193423091       -0.2165732293
 N         -2.1901890859        0.2448109001       -0.3366617576
 C         -1.3323091312        1.3925091543       -0.2068608984
 C         -0.3595344496        1.1565362724        0.9710991217
 N          0.3964141294       -0.0663533321        0.8335120035
 C          1.4680583951       -0.0566499003       -0.1546791902
 C          2.3988011778        1.1541333878       -0.0266750279
 C          3.6860907035        0.6704580241       -0.6847460224
 C          3.8421684819       -0.7494902767       -0.1414314963
 C          2.4057123976       -1.2689898082        0.0420498662
 C         -0.5146616904       -1.1816173656        0.7134679873
 C         -1.5090983734       -1.0239520277       -0.4585361464
 H         -0.7645373072        1.5199214412       -1.1321777116
 H         -1.9559457636        2.2675867239       -0.0325167765
 H          0.3139923074        2.0053432279        1.0586143736
 H         -0.9430445677        1.0813118615        1.8928613967
 H          1.0706407091       -0.0770357713       -1.1840054106
 H          2.0042496892        2.0473145275       -0.5078445894
 H          2.5783538181        1.3591714730        1.0286374315
 H          3.5623535618        0.6494927270       -1.7688947575
 H          4.5393787339        1.3035817293       -0.4492214387
 H          4.4225596871       -1.3815777233       -0.8114591005
 H          4.3549014977       -0.7193306797        0.8195010602
 H          2.2708210225       -1.6682031216        1.0458325712
 H          2.1796989929       -2.0581348994       -0.6739250760
 H          0.0419842865       -2.1071823051        0.5790426785
 H         -1.0842970717       -1.2520621539        1.6447298551
 H         -2.2660448809       -1.8115055453       -0.4415355279
 H         -0.9774871720       -1.0505127817       -1.4127579970
