  31
        -40.92412595
 O         -4.3241966257        0.6174649744        0.4573851781
 N         -3.6348932429       -0.3882797189        0.1948801406
 N         -2.4517652724       -0.2020739379       -0.2642562537
 C         -1.7991029583        1.0739763972       -0.4960094832
 C         -0.4669084418        1.1112301805        0.2457410813
 N          0.3913366565       -0.0275844823       -0.1627639517
 C          1.7417016779        0.0525690498        0.4689120436
 C          2.6287341948       -1.1531313988        0.1357185229
 C          4.0394491211       -0.5874484459        0.2809709335
 C          3.9307684176        0.7739832751       -0.4020517509
 C          2.5321474835        1.2864609339       -0.0187647580
 C         -0.3128368684       -1.2938893147        0.1540372181
 C         -1.6494835147       -1.3578629163       -0.5836433448
 H         -1.6624744602        1.2145615314       -1.5719129153
 H         -2.4667442630        1.8566761820       -0.1254028103
 H          0.0348941620        2.0540664438        0.0337096290
 H         -0.6368908300        1.0408058620        1.3214523260
 H          1.5868133334        0.1046087073        1.5483095057
 H          2.4650664090       -2.0003552099        0.7963645123
 H          2.4829186426       -1.4650863116       -0.8986683861
 H          4.2903545867       -0.4633423186        1.3346466281
 H          4.7941019664       -1.2242302003       -0.1748690775
 H          4.7179870935        1.4561116632       -0.0894863697
 H          4.0111985923        0.6489674359       -1.4819020252
 H          2.0628662377        1.7558875786       -0.8811854133
 H          2.6046114421        2.0320269087        0.7699799607
 H          0.2965986535       -2.1431979183       -0.1491033064
 H         -0.4714238722       -1.3373670715        1.2323124423
 H         -2.2027449989       -2.2486373515       -0.2869080634
 H         -1.4898468133       -1.3904225194       -1.6658624148
 H          0.5257590698        0.0162239311       -1.1827809893
