  43
        -81.63837036
 O         -6.5408191120        0.0428323105       -1.3116938489
 N         -5.7727640806       -0.7519129419       -0.7320064832
 N         -4.5392845771       -0.4070101439       -0.5961423121
 C         -3.9475891162        0.8451258143       -1.0185614207
 C         -3.3925321203        1.5746779603        0.2156851826
 N         -2.4246078068        0.7285840358        0.8746903959
 C         -1.0765498799        0.8402640243        0.6054900035
 C         -0.2643396394       -0.2664496990        0.3838054083
 C          1.1151828960       -0.1564126930        0.1871288493
 C          1.7236856802        1.1126302366        0.1869993212
 C          0.9147265792        2.2320762535        0.4135383943
 C         -0.4263490774        2.0943690874        0.6239259946
 F         -1.1469113617        3.2302449983        0.8875299675
 C          3.1566208783        1.2911484361       -0.0416746844
 O          3.6944729241        2.4107028354        0.0483195085
 C          3.8532904040        0.0664008009       -0.3487186108
 C          5.3303751219        0.0672944981       -0.7239073049
 O          5.7015825315        0.8695486598       -1.6048913665
 O          6.0506537475       -0.7750366056       -0.1400332933
 C          3.2029736876       -1.1233729603       -0.3075126514
 N          1.8891069383       -1.2720523221       -0.0242167651
 C          1.3086738513       -2.5865565864        0.0146454371
 C          2.0382326054       -3.6856795826        0.7255447773
 C          0.7893398134       -3.1153073689        1.3214977097
 C         -3.0105543289       -0.5205892970        1.2915849598
 C         -3.6663891168       -1.3149982989        0.1384945824
 O         -2.6867356697       -1.8466789964       -0.6915951626
 H         -3.1333551416        0.6294101581       -1.7147198603
 H         -4.7262212570        1.4287067233       -1.5140999624
 H         -2.9488646751        2.5138923061       -0.1016242492
 H         -4.2083552213        1.7895316780        0.9124750179
 H         -0.7201563951       -1.2368927532        0.3137440157
 H          1.3832728698        3.2039444174        0.4333372739
 H          3.7582935070       -2.0273193497       -0.5143625699
 H          0.7681737160       -2.8327693509       -0.8920282261
 H          2.0085789999       -4.6709430848        0.2889388754
 H          2.9791831558       -3.4439698080        1.1951800815
 H          0.8954235018       -2.4821593088        2.1879858939
 H         -0.1117441845       -3.7067184947        1.3042674872
 H         -2.2604077961       -1.1427642628        1.7739656370
 H         -3.7982578216       -0.2865551495        2.0140401033
 H         -4.3165694279       -2.0946015456        0.5568139469
 H         -3.0725764928       -2.4802015901       -1.3129324507
