  26
        -42.02957635
 C         -3.4373187914       -0.9920524628       -0.4128960673
 O         -2.4296325074       -0.1049797280        0.0300496838
 C         -1.7778311388        0.5698756540       -1.0345403060
 C         -0.8135303299        1.6059832710       -0.4604626474
 N          0.4536117406        1.0484506857       -0.0351741286
 N          1.4913512710        1.5221624882       -0.6308456715
 O          2.6168267000        1.1384618738       -0.2482852814
 C          0.5289304489        0.0981606702        1.0813409490
 O         -0.4015192943        0.3916624040        2.0581042491
 C          0.3743211832       -1.3690097310        0.5912835165
 O          1.0445816899       -1.6866988118       -0.6005072303
 C          2.4319373723       -1.9366814048       -0.4709002265
 H         -3.0174887929       -1.7700979083       -1.0587290069
 H         -3.8652981670       -1.4428366797        0.4784443481
 H         -4.2135564409       -0.4516605693       -0.9626264427
 H         -1.2372656319       -0.1470995429       -1.6675436468
 H         -2.5269032769        1.0873327439       -1.6465851054
 H         -0.5695439977        2.3462473349       -1.2212348461
 H         -1.2863017373        2.0955199133        0.3952581353
 H          1.5263621156        0.2500452249        1.5181822978
 H          0.6962624400       -2.0225706054        1.4123571265
 H         -0.6838274000       -1.5465073328        0.3900041147
 H          2.7517992154       -2.3388390854       -1.4289062122
 H          2.9856251641       -1.0150048030       -0.2626212780
 H          2.6211452639       -2.6651701387        0.3227243418
 H         -1.2919209076        0.1651548942        1.7285545400
