  29
        -36.17729723
 C         -4.2295539702        0.2294913732       -0.6811963229
 C         -2.9263505910       -0.2534924955       -0.0551182402
 C         -2.0983862064        0.9122837866        0.4809988368
 C         -0.7948516305        0.4496276810        1.1373410083
 N          0.0655759386       -0.2748915029        0.2287223733
 C          0.6566581594        0.4084253382       -0.9062087735
 C          1.6467732687        1.5037138154       -0.5013831007
 C          2.7689879256        1.0140622519        0.4150270194
 C          3.6504413590       -0.0490858602       -0.2321695483
 N          0.2287848452       -1.5181802356        0.4954374434
 O          0.9535256675       -2.2031014167       -0.2666758633
 H         -4.0296247278        0.9037829762       -1.5107978848
 H         -4.8062576847       -0.6120848413       -1.0559822456
 H         -4.8312256156        0.7583654312        0.0539067130
 H         -3.1479508022       -0.9440780323        0.7606155895
 H         -2.3497538884       -0.8058763081       -0.8011817523
 H         -1.8855761192        1.6125255868       -0.3277497118
 H         -2.6763229258        1.4460159390        1.2359225038
 H         -0.2499833221        1.3132238530        1.5236453594
 H         -1.0157946840       -0.2337983547        1.9583361561
 H          1.1606460225       -0.3631122326       -1.4947869107
 H         -0.1438676108        0.8413251522       -1.5091031954
 H          2.0821592522        1.9010458587       -1.4194186939
 H          1.1108098424        2.3158388179       -0.0083302353
 H          3.3877435673        1.8726927482        0.6829844342
 H          2.3462979990        0.6108684312        1.3383149308
 H          3.0984898810       -0.9732713179       -0.3959789023
 H          4.0333207991        0.2986092904       -1.1890684540
 H          4.4948155195       -0.2810164943        0.4122921034
