  47
        -84.26318346
 C          2.2657139054        1.9473200879        1.3611794716
 C          3.6946866865        1.6692532685        0.8974515903
 C          4.2821505108        2.9119622544        0.2320705425
 C          3.7300150694        0.5017163033       -0.0921726083
 C          5.1952127718       -0.0249825367       -0.4266149389
 O          6.1566587537        0.5116824154        0.1198328537
 O          5.2228433509       -0.9852541537       -1.2276348812
 N          3.0100869258       -0.6573821543        0.3751064211
 N          3.2323840373       -1.0588547773        1.5698568550
 O          2.6505373191       -2.1042720884        1.9630793126
 C          2.1477061341       -1.3825803035       -0.5859611993
 O          2.6806742982       -1.3606510064       -1.8617041957
 C          0.7868839604       -0.7272854528       -0.5343385905
 C         -0.0505789452       -0.9759515532        0.5464244387
 C         -1.2682941054       -0.3351964463        0.6423068373
 C         -1.6803141531        0.5589318964       -0.3422080715
 C         -2.9717441077        1.2519600197       -0.2179035339
 C         -3.0239526057        2.6387218023       -0.3184247285
 C         -4.2117336674        3.3223949976       -0.1354248507
 C         -5.3713765011        2.6229947122        0.1567609030
 C         -5.3391147609        1.2439780895        0.2415960008
 C         -4.1509967428        0.5458260387        0.0473932579
 C         -4.1837649034       -0.9101391366        0.0721623461
 N         -4.8709510179       -1.6320774245        0.9717177438
 N         -4.6824641317       -2.8947568317        0.6023129453
 N         -3.9392722667       -2.9383462112       -0.4672210783
 N         -3.5993024565       -1.7091269627       -0.8351266352
 C         -0.8327032344        0.8080782455       -1.4163952146
 C          0.3904334369        0.1723199481       -1.5124698355
 H          1.8525149359        1.0944669133        1.8958867786
 H          2.2554641116        2.8055013036        2.0262746412
 H          1.6224654390        2.1522164175        0.5073869153
 H          4.3141366057        1.3924750632        1.7553046515
 H          3.6849571253        3.1916537758       -0.6326008457
 H          4.2938349987        3.7369283008        0.9377885447
 H          5.2998150240        2.7086960560       -0.0893246210
 H          3.2686288648        0.7950235705       -1.0405303124
 H          2.0901299409       -2.4126528880       -0.1847325895
 H          0.2608122762       -1.6728634201        1.3131635565
 H         -1.9119676073       -0.5314706038        1.4895212651
 H         -2.1092232895        3.1765737098       -0.5193307158
 H         -4.2306762026        4.3983353637       -0.2121569855
 H         -6.3017071951        3.1470339797        0.3124398510
 H         -6.2335988503        0.6765178757        0.4559706623
 H         -1.1460014550        1.4911325876       -2.1912841178
 H          1.0414989092        0.3464974014       -2.3552768834
 H          3.6752834400       -1.3832003120       -1.7977584494
