  18
        -27.59128827
 C         -0.8287762332       -1.6349770844       -0.0495489525
 N         -0.4791261804       -0.2303818190       -0.0089677234
 N         -1.3419933542        0.7165799318        0.0198494262
 O         -2.5525697842        0.3941385876        0.0371661440
 C          0.9587540584        0.1309429778        0.0024455226
 C          1.1067969951        1.6449297801       -0.0816362963
 C          1.5784920714       -0.4123815967        1.2917999062
 O          1.5733638266       -0.5193172491       -1.0716281186
 H         -0.9877396626       -2.0110745044        0.9612497977
 H         -1.7636948491       -1.7306366297       -0.6037474994
 H         -0.0268292104       -2.1780963587       -0.5406467746
 H          2.1639533013        1.8869295509       -0.1438226571
 H          0.5930963286        2.0335557184       -0.9561344071
 H          0.6828075301        2.1153912328        0.7982222813
 H          1.0314532287       -0.0441851102        2.1535512041
 H          1.5665985304       -1.4976497743        1.2846255291
 H          2.6101513108       -0.0808706674        1.3506977558
 H          1.4333771371       -0.0276826613       -1.8939819768
