  31
        -53.75751805
 O         -1.4693257054       -2.6196707098       -0.8750010677
 N         -1.6502640423       -1.5195136767       -1.4393430534
 N         -2.1527924372       -0.5576366923       -0.7528247960
 C         -2.2502479032        0.7298707353       -1.4067718952
 C         -1.4585404977        1.7679714750       -0.5889604989
 C         -2.0955968050        1.8419307276        0.8033906895
 C         -1.6493858624        0.4967247784        1.3867005207
 C         -0.2244651443        0.4112848798        0.9125222596
 C          0.8264793805       -0.2861349768        1.4208470062
 C          2.0652356858       -0.2172467141        0.7411514629
 N          3.1258902767       -0.8941339837        1.2289723902
 C          4.2488396390       -0.8131545728        0.5615516525
 C          4.3668326839       -0.0495843610       -0.6145174508
 N          3.3609617117        0.6256503757       -1.1090352177
 C          2.1852124139        0.5590697625       -0.4501143139
 C          1.0669358041        1.2623425406       -0.9561559154
 C         -0.1064848379        1.1833365839       -0.2731357795
 C         -2.4564940765       -0.6175775312        0.6860371519
 O         -3.8117349354       -0.4176670295        0.9158333407
 H         -1.8483387757        0.6084999564       -2.4120971373
 H         -3.3009187374        1.0250183448       -1.4534408624
 H         -1.4217280129        2.7147709444       -1.1228386167
 H         -1.6734825592        2.6611663158        1.3831343172
 H         -3.1785375073        1.9334312632        0.7779319563
 H         -1.7787234004        0.4017385067        2.4631798847
 H          0.7569928340       -0.8872042057        2.3130702169
 H          5.0894824544       -1.3620920583        0.9618748185
 H          5.3016617912        0.0093228311       -1.1537157498
 H          1.1819105806        1.8331262403       -1.8628579439
 H         -2.1130727154       -1.6080789681        1.0192147814
 H         -4.3228714934       -1.2213105259        0.7507575442
