  39
        -67.61877802
 C          2.5729545622        2.8069908170        1.4899188063
 N          2.1750238316        1.7427008714        0.5951611275
 N          1.4837865141        1.9338087997       -0.4681383937
 O          1.1676099521        3.1155868677       -0.7409798639
 C          2.4135098746        0.3307059861        0.9978318905
 O          3.6624815120        0.2467256921        1.6124469230
 C          1.3545480738       -0.0209637608        2.0557342018
 C          1.1176129476       -1.5221135023        2.1062701927
 C          0.5642443012       -2.0143817602        0.7620627817
 C         -0.8253489516       -1.4632408332        0.5343990150
 C         -1.9257202834       -2.1074180037        1.0895487871
 C         -3.2002874041       -1.5936726795        0.9405326973
 C         -3.3915298820       -0.4165520515        0.2340070524
 Cl        -4.9848877214        0.2393062615        0.0511278065
 C         -2.2999702239        0.2331286018       -0.3266816566
 Cl        -2.5073141673        1.7220945615       -1.2067392609
 C         -1.0263385703       -0.2901171084       -0.1820972842
 C          1.5017331277       -1.6318970857       -0.3508312569
 C          1.5201033995       -2.3905552439       -1.5161310547
 C          2.3687134222       -2.0776992171       -2.5598437936
 C          3.2248275994       -0.9942943950       -2.4477463353
 C          3.2145214591       -0.2322473388       -1.2962769832
 C          2.3494064568       -0.5334651089       -0.2471721828
 H          3.2865540423        2.4096428418        2.2038335520
 H          3.0126039799        3.6094225691        0.8958960339
 H          1.6938723728        3.2064954288        1.9982903777
 H          1.7222357341        0.3377549948        3.0171292685
 H          0.4214160261        0.4910038510        1.8185565789
 H          2.0600929104       -2.0295047946        2.3138110526
 H          0.4120515677       -1.7503550573        2.9039350381
 H          0.4900156270       -3.1048886570        0.7960455981
 H         -1.7882900653       -3.0209439342        1.6459938787
 H         -4.0527475135       -2.0937914324        1.3691406407
 H         -0.1974185450        0.2346128858       -0.6337216936
 H          0.8547079530       -3.2363668066       -1.5980031612
 H          2.3676953979       -2.6762585615       -3.4574107311
 H          3.8956636373       -0.7417287919       -3.2540516171
 H          3.8721427717        0.6224227262       -1.2219261557
 H          4.3673906038        0.1376025560        0.9566443208
