  41
        -64.55950323
 C         -3.9601241038        1.0893883816        1.5226595563
 C         -3.7496420875       -0.2267832249        0.7850382488
 C         -2.7435027699       -0.1010561134       -0.3636177263
 C         -2.5399380234       -1.4376409250       -1.0891351785
 O         -2.2128511604       -2.4511125052       -0.1646949434
 N         -1.4823597910        0.4735175086        0.0853883673
 C         -0.6628864013       -0.1754460400        1.0773874372
 C          0.5156893020       -0.9743286801        0.4795762277
 O          1.1204909334       -1.6235328855        1.5363557209
 N          1.4588186940       -0.0983120588       -0.2336111863
 N          1.3919503805        0.1251306358       -1.4948290486
 O          0.4230578374       -0.3526185604       -2.1270591387
 C          2.6495891729        0.3833892423        0.4553617778
 C          2.9031362782        1.8672936602        0.1872861403
 C          1.8794800855        2.7633595845        0.8730837930
 C          3.8494863744       -0.4648199407        0.0029500322
 O          3.5521043944       -1.8319073068        0.2140431354
 N         -0.9997139764        1.5741696285       -0.3732260187
 O         -1.6184078075        2.1800204912       -1.2726816605
 H         -4.7556317168        0.9825525974        2.2542081011
 H         -3.0558614403        1.3983936688        2.0408682609
 H         -4.2364593837        1.8771034267        0.8240003172
 H         -3.4191337296       -1.0019400999        1.4760167947
 H         -4.6932061994       -0.5534127383        0.3461167089
 H         -3.1145998621        0.6214489924       -1.1034289996
 H         -3.4751623528       -1.6726096580       -1.6094875497
 H         -1.7453143863       -1.3150676974       -1.8394464097
 H         -0.2487699440        0.5790116629        1.7485391059
 H         -1.2636723777       -0.8903584205        1.6359362005
 H          0.1380764917       -1.6728221713       -0.2840689503
 H          2.4716533250        0.2131426365        1.5209474656
 H          3.9009438315        2.1085893266        0.5540109382
 H          2.8797557310        2.0375107873       -0.8886521932
 H          1.8650437876        2.5796793011        1.9445703396
 H          2.1333796402        3.8066508991        0.7084256371
 H          0.8862180673        2.5886180845        0.4672316742
 H          4.0302303111       -0.2729927958       -1.0614133731
 H          4.7283183886       -0.1678722823        0.5835504029
 H         -2.3209435600       -3.3159828848       -0.5806633097
 H          1.9187401410       -2.0930461078        1.2264069529
 H          4.3313159919       -2.3666604314        0.0127461755
