  42
        -77.27406014
 C         -2.8892341791       -3.2201650574        0.5989129154
 N         -2.9305550132       -2.0837850655       -0.2878981421
 N         -2.3734308638       -2.2316854220       -1.4323467390
 O         -2.3718826309       -1.2677075795       -2.2301221598
 C         -3.6238894452       -0.8702142160        0.1671355383
 O         -4.9606665674       -1.1724726763        0.4361388193
 C         -3.0143776018       -0.3121839625        1.4564227139
 C         -1.6193377828        0.3029870638        1.2711840765
 O         -0.7949675802       -0.7157003407        0.7121734537
 C          0.5285957857       -0.5075320332        0.5582101851
 C          1.2409539864       -1.5707122415       -0.0078548794
 C          2.5988689350       -1.4765923883       -0.2076711472
 C          3.2696287068       -0.3151958155        0.1663277925
 C          4.7365458756       -0.1837112599       -0.0724441019
 F          5.3824659813       -1.3619056282       -0.1437253614
 F          5.0273398682        0.4529045584       -1.2372828586
 F          5.3723956860        0.5280825291        0.8806769540
 C          2.5710599464        0.7460448290        0.7268610462
 C          1.2073634776        0.6533888647        0.9260582857
 C         -1.6879833700        1.5614683801        0.4317962194
 C         -1.4332331168        1.5481111388       -0.9322820246
 C         -1.5259833798        2.7166425421       -1.6698176194
 C         -1.8755644902        3.9048276693       -1.0528790569
 C         -2.1333080376        3.9234796602        0.3084801055
 C         -2.0376965574        2.7588952657        1.0470596528
 H         -2.0798245057       -3.0963834339        1.3182923850
 H         -3.8417804050       -3.2924233746        1.1204545110
 H         -2.7077307705       -4.1119000635        0.0063905755
 H         -3.5193330412       -0.1420189980       -0.6499822295
 H         -3.6938980899        0.4602901030        1.8155379411
 H         -2.9751166817       -1.1066644500        2.1994050631
 H         -1.2354211691        0.5620723122        2.2690391899
 H          0.7000722206       -2.4574201765       -0.2945034735
 H          3.1434950457       -2.2971860476       -0.6466749560
 H          3.0963194166        1.6445739900        1.0102018370
 H          0.6846346600        1.4932706336        1.3514427267
 H         -1.1707349922        0.6253257473       -1.4300916674
 H         -1.3265377625        2.6900694859       -2.7303230836
 H         -1.9466927504        4.8132466347       -1.6310174008
 H         -2.4056298941        4.8474609530        0.7947512052
 H         -2.2329258977        2.7756106358        2.1091878993
 H         -5.4723100370       -1.2685077516       -0.3787249040
