  31
        -44.81879205
 O         -3.9433181303       -0.7949605769        0.8328720218
 N         -3.1572679548       -1.1147917835       -0.0866491423
 N         -2.1758390465       -0.3315613395       -0.3452966619
 C         -1.2133845079       -0.7466817995       -1.3376671959
 C          0.1586950560       -0.8651017341       -0.6630605357
 N          0.4783464083        0.4069880516       -0.0400274109
 C          1.8725035105        0.6328137241        0.3169356370
 C          2.4952649079       -0.4005332784        1.2862647181
 C          3.9129685681       -0.6275983018        0.7659518855
 C          3.7469539561       -0.5368583848       -0.7482596777
 C          2.7940871262        0.6460547969       -0.9227552332
 C         -0.4636855064        0.6840190290        1.0252977387
 C         -1.8398958660        0.8996363284        0.3788862743
 O         -1.8460325283        1.9897128729       -0.4761425603
 H         -1.5418635321       -1.7019456812       -1.7436740439
 H         -1.1809051843        0.0044751793       -2.1291132205
 H          0.1112781416       -1.6888704825        0.0678323551
 H          0.9084939555       -1.1031392227       -1.4142620994
 H          1.8909867200        1.6215676998        0.7849697870
 H          2.4814948483       -0.0512376970        2.3177502612
 H          1.9380305735       -1.3364252012        1.2410829557
 H          4.5710902562        0.1693354165        1.1149331239
 H          4.3254453931       -1.5818689788        1.0898884760
 H          4.6931406972       -0.3843772786       -1.2640099917
 H          3.2961643173       -1.4568127830       -1.1232527339
 H          2.2244554097        0.5967058080       -1.8473463081
 H          3.3656190667        1.5733385397       -0.9342027981
 H         -0.5381389640       -0.1302795470        1.7654516365
 H         -0.1802458095        1.6014307264        1.5432811681
 H         -2.6310656096        1.0481386889        1.1234404590
 H         -0.9745093547        2.0432539936       -0.9071569393
