  38
        -57.33949929
 C         -4.2636103847       -0.6712327371       -1.0021371874
 N         -3.4267036208       -0.0844938975        0.0107242954
 C         -2.7514419610        1.1609502730       -0.2877312983
 C         -1.6519115388        0.9958132443       -1.3563293548
 O         -0.7988126191       -0.1049749243       -1.1526664047
 C          0.0284701063       -0.0506810890        0.0037621565
 C          0.9025222441        1.1860073767        0.0420244382
 C          0.9502021769        1.9847200058        1.1755687680
 C          1.7707432042        3.0993723921        1.2089702304
 C          2.5412631349        3.4270643735        0.1063567420
 C          2.4927892460        2.6355217901       -1.0297108926
 C          1.6803600949        1.5168967519       -1.0607748646
 C          0.9299915035       -1.2640241265        0.0156567482
 C          1.1960513815       -1.9792178646       -1.1424667818
 C          2.0573627438       -3.0626000456       -1.1097061307
 C          2.6644345904       -3.4340991002        0.0770391799
 C          2.4022305396       -2.7213617343        1.2358793453
 C          1.5385273452       -1.6421442651        1.2058516387
 N         -3.2992875032       -0.7404179611        1.1027554528
 O         -2.5344793776       -0.2760866136        1.9854781631
 H         -4.9954196111        0.0592460460       -1.3430923352
 H         -3.6514945505       -0.9933261434       -1.8444391490
 H         -4.7651732882       -1.5329743436       -0.5711636631
 H         -3.4811647888        1.8858882202       -0.6503396154
 H         -2.3180579909        1.5169647957        0.6517367167
 H         -2.1020721755        0.8065572967       -2.3324748797
 H         -1.0811140817        1.9329762339       -1.3970245843
 H         -0.5933024726       -0.0760304185        0.9142981665
 H          0.3422851215        1.7300687348        2.0334068058
 H          1.8038083198        3.7132937783        2.0963319875
 H          3.1783286970        4.2978439459        0.1326113057
 H          3.0919692263        2.8876853888       -1.8912494593
 H          1.6387529359        0.8913311654       -1.9400179061
 H          0.7134985246       -1.6895830405       -2.0625420450
 H          2.2549850724       -3.6163005458       -2.0151067746
 H          3.3373344745       -4.2776645326        0.1021135384
 H          2.8687765972       -3.0080018566        2.1663090070
 H          1.3271303582       -1.0887333404        2.1099057079
