  46
        -79.82254922
 C         -1.5232977657       -1.2591968880       -1.2850058885
 C         -2.5053688958       -1.3136768537       -0.1158781806
 C         -3.1160377185       -2.7093787656       -0.0144421205
 C         -3.6019255893       -0.2704638089       -0.3228751269
 C         -4.7492609457       -0.4619269484        0.8329789217
 O         -4.3621402100       -0.2925827271        1.9801160469
 O         -5.8379310973       -0.7498550593        0.3571020239
 N         -3.1848921056        1.0906985826       -0.2804259749
 C         -2.4319188329        1.6095692732        0.8459362406
 C         -0.9411072327        1.4450103461        0.6680423331
 C         -0.3079803848        2.0398899660       -0.4178307397
 C          1.0558969961        1.9085273072       -0.5908696971
 C          1.8118506300        1.1642259146        0.3105301631
 C          3.2700783690        1.0443876335        0.1465002111
 C          4.0584429425        2.1901476611        0.1586797012
 C          5.4357541491        2.1059186055        0.0686213979
 C          6.0491511129        0.8666679695       -0.0390019020
 C          5.2800957064       -0.2797785402       -0.0790868668
 C          3.8918101822       -0.2037065403        0.0066504476
 C          3.1137009150       -1.4179759955       -0.1234515871
 N          3.5981544259       -2.6623826540       -0.0215007538
 N          2.5719124194       -3.4628795613       -0.2644378485
 N          1.5106930777       -2.7617684831       -0.5102177065
 N          1.8102969137       -1.4811023743       -0.4345767117
 C          1.1761411919        0.5826252893        1.4056050057
 C         -0.1862309307        0.7241955901        1.5832457270
 N         -3.4287182970        1.9424566542       -1.2134826671
 O         -4.1041501942        1.6171795510       -2.2056876430
 H         -2.0129392131       -1.5681523410       -2.2056794186
 H         -1.1237268964       -0.2575614961       -1.4214968967
 H         -0.6868398362       -1.9264337320       -1.0887033623
 H         -1.9806979929       -1.0936794921        0.8164753223
 H         -3.7530732824       -2.7902986912        0.8641229109
 H         -3.7184067582       -2.9258905686       -0.8940334316
 H         -2.3215567730       -3.4463398809        0.0592251846
 H         -4.1188292380       -0.4299297164       -1.2764152203
 H         -2.6704640742        2.6728515546        0.9218082807
 H         -2.7790368760        1.0867882655        1.7403952254
 H         -0.8955538162        2.6017023109       -1.1294213505
 H          1.5419235874        2.3656654678       -1.4393448502
 H          3.5751435639        3.1502487362        0.2589955382
 H          6.0317033456        3.0049255646        0.0875324431
 H          7.1236280984        0.7937499330       -0.1007832077
 H          5.7319730944       -1.2545232259       -0.1830505941
 H          1.7595358502        0.0209991024        2.1209208852
 H         -0.6665729825        0.2729102434        2.4389140076
