  31
        -44.81750609
 O         -4.1192325398        0.8086042052       -0.2567314762
 N         -3.4222309495       -0.1928953549        0.0347562168
 N         -2.1529689102       -0.1186384492       -0.1733293017
 C         -1.4294786364        1.0287660279       -0.6708777648
 C         -0.4257321046        1.4895986991        0.4071760167
 N          0.4659118818        0.4307092001        0.8202073581
 C          1.5406523972        0.1486707643       -0.1264058959
 C          2.5052523102        1.3518231730       -0.2279846100
 C          3.9300898944        0.7730875121       -0.2257168670
 C          3.7456652256       -0.7305077957       -0.4246770009
 C          2.4377738448       -1.0157612771        0.3041540123
 C         -0.2988836225       -0.6940904352        1.2937543399
 C         -1.3356615250       -1.2364772959        0.2734654147
 O         -0.6733324564       -1.8311508734       -0.7953270539
 H         -0.8956162518        0.7347488176       -1.5769009097
 H         -2.1592029416        1.8077096742       -0.9005719888
 H          0.1471530357        2.3292476870        0.0187778391
 H         -0.9859878260        1.8236013942        1.2859480675
 H          1.1402516201       -0.0860055455       -1.1245382951
 H          2.3181156792        1.9251232631       -1.1351066765
 H          2.3585157129        2.0073137810        0.6287551268
 H          4.5530104915        1.2161938373       -1.0010027000
 H          4.4076919666        0.9579771124        0.7362288350
 H          3.6353998166       -0.9616130809       -1.4852793493
 H          4.5788511963       -1.3095080111       -0.0305663118
 H          2.6001543556       -0.9706796265        1.3813420160
 H          2.0159066734       -1.9820267839        0.0349631044
 H          0.3640150286       -1.5116876031        1.5650454818
 H         -0.8530138640       -0.3756135839        2.1810698484
 H         -2.0167110919       -1.9331610183        0.7786880866
 H         -1.2750342336       -2.3842434303       -1.3134595649
