  51
       -105.50276330
 N          2.8365494360        3.2246625951        0.3944946734
 C          1.5933697389        2.7719753799        0.1534177492
 N          0.6370271944        3.0313208946        1.0090949184
 C         -0.5800292231        2.5190992558        0.7442811276
 N         -1.5416539859        2.6740643456        1.6704074654
 C         -2.7000705149        2.0918203886        1.4460358968
 C         -2.9586379714        1.3575055323        0.2877973198
 C         -4.2484801737        0.5940392942        0.0673482963
 O         -4.9314675939        0.4703737771        1.2626602565
 N         -3.9169927535       -0.7208838415       -0.5147915057
 N         -4.7143243714       -1.1107811124       -1.4602786341
 O         -4.4930817047       -2.1969033944       -2.0187083232
 C         -2.7215455127       -1.3495140554       -0.0825455126
 C         -1.8113307917       -1.8484350251       -1.0067779905
 C         -0.5732672562       -2.2897748698       -0.5827871631
 C         -0.2345478896       -2.2398502302        0.7659049544
 C          1.1406296781       -2.4385771478        1.2937893828
 O          1.3386002985       -2.6685640390        2.4892456967
 N          2.1626674854       -2.3783903941        0.3916509356
 C          3.3436927514       -1.6869061007        0.8671446620
 C          4.5501827930       -1.7532561102       -0.0641798214
 C          4.2242701141       -1.4911149609       -1.5387559336
 C          3.2057839434       -0.3474767511       -1.7059036768
 O          3.6303761069        0.8296874543       -1.7837017416
 O          2.0003057969       -0.6731611087       -1.7824935663
 C          2.9305539651       -0.1882193240        1.1395864365
 O          3.8535148232        0.6229998184        1.3249189350
 O          1.7074961089        0.0550398618        1.1870069136
 C         -1.1920092109       -1.8215874429        1.6900508095
 C         -2.4280600836       -1.3750955704        1.2778392387
 N         -2.0585257899        1.2759763706       -0.6828868860
 C         -0.8785575341        1.8403789675       -0.4706691766
 C          0.1653020781        1.7234993448       -1.4911880001
 O         -0.0041615070        1.2842209535       -2.6199535549
 N          1.3813743068        2.2054287980       -1.0751914656
 H          3.0162103306        3.4370331664        1.3657906140
 H          3.5765479122        2.7116077607       -0.0680217227
 H         -3.4522533513        2.2136367335        2.2116058085
 H         -4.8503756768        1.0964436009       -0.7035830188
 H         -5.8507779335        0.1982782304        1.1064884449
 H         -2.0415566084       -1.8360121559       -2.0601147145
 H          0.1365767142       -2.6293036484       -1.3205681866
 H          1.8820685974       -1.9839750162       -0.5096599055
 H          3.6018370325       -2.1003143085        1.8507938896
 H          5.2320848674       -0.9776257382        0.2953851335
 H          5.0344199265       -2.7273873479        0.0250859420
 H          5.1376838140       -1.2217755593       -2.0703204243
 H          3.7799354452       -2.3811052410       -1.9888963506
 H         -0.9128980589       -1.8088403291        2.7327876369
 H         -3.1441514220       -1.0069579942        1.9955873845
 H          2.2184386754        1.8596890456       -1.5850725014
