  45
        -82.28966256
 C         -3.9152911165       -3.6255001538       -1.7761935230
 C         -2.5066645601       -3.6314099806       -1.1946592948
 C         -1.5917898167       -2.6634845049       -1.9418750984
 C         -0.2112756618       -2.5536935547       -1.2910155563
 N         -0.2971522168       -1.9165366878        0.0075134578
 N         -0.1540298428       -2.6675953090        1.0463640511
 O         -0.2635181832       -2.1403737552        2.1700627936
 C         -0.6505061425       -0.5353885370        0.0552408583
 C         -1.9006264872       -0.1516211231        0.5153740441
 C         -2.2637516516        1.1863776606        0.5730528725
 C         -3.6578664942        1.5801255988        1.0884701571
 O         -4.4636936194        0.6483818831        1.2729652444
 O         -3.8581145888        2.7951062649        1.2750315259
 C         -1.3539653015        2.1564540158        0.1752784396
 C         -0.1081043863        1.7755237914       -0.2691353370
 S          1.1524700299        2.9861044897       -0.6364363732
 N          1.6763695984        2.7657095396       -2.1765980739
 O          0.5694621389        4.3062471803       -0.5752443703
 O          2.2732839037        2.7409759629        0.2436909950
 C          0.2717870458        0.4435772726       -0.3359132118
 O          1.5011226979        0.1403633757       -0.8435917492
 C          2.3446022294       -0.6551054810       -0.0657769486
 C          3.2258843899       -1.4921318757       -0.7356669805
 C          4.1068877737       -2.2703386903       -0.0071819536
 C          4.1044171669       -2.2178050179        1.3766305804
 C          3.2267812218       -1.3730897052        2.0350181746
 C          2.3451360571       -0.5830790000        1.3184820586
 H         -3.8939377814       -3.8850464996       -2.8314028028
 H         -4.5450241743       -4.3405481098       -1.2538607306
 H         -4.3642426917       -2.6392651704       -1.6705035640
 H         -2.5553199604       -3.3514591976       -0.1393650756
 H         -2.0906985015       -4.6383448812       -1.2491851220
 H         -1.4602718052       -3.0071753860       -2.9675321936
 H         -2.0568225541       -1.6750502092       -1.9709951782
 H          0.2153754801       -3.5420077794       -1.1205500422
 H          0.4539662653       -1.9601704630       -1.9204224065
 H         -2.6237979840       -0.8878343836        0.8364415777
 H         -1.6157497651        3.2014761169        0.2327020310
 H          2.0817014594        1.8512249942       -2.3097471786
 H          3.2125787477       -1.5216853791       -1.8125994795
 H          4.7912819026       -2.9234112245       -0.5238315297
 H          4.7853800481       -2.8301846342        1.9452003117
 H          3.2170551910       -1.3215831902        3.1124334427
 H          1.6607414145        0.0852231733        1.8228932411
 H          0.9608408681        2.9863026907       -2.8512832253
