  41
        -62.46136916
 C         -0.5952528565       -1.7062474061        1.1353096446
 C         -2.0217520440       -2.1075515442        0.7705266648
 C         -2.0486941934       -3.1951291678       -0.3001583268
 N         -2.7909570562       -0.9430011948        0.3491069101
 C         -2.4059635148       -0.1927028543       -0.8345865332
 C         -1.9784333844        1.2585041528       -0.5284558159
 O         -3.0328286043        2.1795085774       -0.6653761758
 C         -0.8883388631        1.6924674620       -1.5239764263
 O          0.2709082371        0.9012508632       -1.4309126045
 C          1.1609199331        1.1069393529       -0.4079806548
 C          1.0749592473        2.1006727675        0.5341915052
 C          2.0501744359        2.2119235081        1.5377348675
 C          3.0945384797        1.3366026119        1.6065248674
 C          3.2168151074        0.3014824747        0.6553674236
 C          4.2810802249       -0.6235274084        0.6909027658
 C          4.3798859313       -1.6180904834       -0.2417942499
 C          3.4193102704       -1.7321592975       -1.2574732162
 C          2.3755484128       -0.8508407147       -1.3211966293
 C          2.2456142847        0.1813802731       -0.3700178785
 N         -3.8049549466       -0.6623397301        1.0740570283
 O         -4.4869672362        0.3462437328        0.7658251194
 H         -0.5958646512       -0.9122028798        1.8779745718
 H         -0.0784383438       -2.5646111689        1.5521206095
 H         -0.0407597872       -1.3667665832        0.2651862206
 H         -2.5402078804       -2.4662036790        1.6644457815
 H         -3.0708511517       -3.4086462278       -0.6005399631
 H         -1.4753294983       -2.9059102672       -1.1761229081
 H         -1.6118703594       -4.1013272445        0.1070017393
 H         -1.5800595779       -0.7141353980       -1.3112928910
 H         -3.2648178646       -0.1524522056       -1.5134909246
 H         -1.5704335297        1.2976061219        0.4954553111
 H         -1.2626450683        1.5482778160       -2.5399629919
 H         -0.6779871578        2.7566424502       -1.3836682322
 H          0.2653176199        2.8130718733        0.5256268087
 H          1.9536330132        3.0070573599        2.2615211613
 H          3.8379816630        1.4233118708        2.3840336996
 H          5.0195746708       -0.5276620854        1.4731559418
 H          5.1989282844       -2.3203892580       -0.2046622778
 H          3.5113516194       -2.5193567528       -1.9901030299
 H          1.6366686671       -0.9231675549       -2.1041448422
 H         -3.7994844158        1.8284778650       -0.1672587608
