  29
        -48.68083530
 C          0.1088576711       -2.9437402191        0.3293135236
 C          0.6066493259       -1.5044823617        0.4334179089
 C          1.6084266128       -1.2314667432       -0.7115152489
 N          2.5925422186       -0.2436875832       -0.3441708716
 N          3.7767928639       -0.6764041890       -0.0920498388
 O          4.6414769774        0.1457671135        0.2819130210
 C          2.1753334861        1.1575160578       -0.2087006475
 O          1.5365576361        1.5909252986       -1.3648089905
 C          1.2250790461        1.3142175597        0.9915227566
 C         -0.1753804589        0.8773366421        0.6643075623
 C         -1.1752578604        1.8380218860        0.6020664693
 C         -2.4806940934        1.5055117013        0.2895752462
 C         -2.7748733371        0.1809054103        0.0314119411
 Cl        -4.4091049217       -0.2749465453       -0.3721355251
 C         -1.7969789069       -0.7955608398        0.0824950493
 C         -0.4874768823       -0.4613355892        0.4025197375
 H         -0.3280661793       -3.1365934785       -0.6462818435
 H          0.9431214259       -3.6255912008        0.4710852769
 H         -0.6289325054       -3.1464986023        1.1002926760
 H          1.1468990041       -1.4072833182        1.3817635825
 H          2.1580625072       -2.1414406629       -0.9503688160
 H          1.0696447295       -0.8736157053       -1.5911002543
 H          3.1054808404        1.7108463826       -0.0089085379
 H          1.6346934397        0.7490762896        1.8311267981
 H          1.2151029386        2.3693970439        1.2626338551
 H         -0.9314365301        2.8704747354        0.7981061750
 H         -3.2493743558        2.2592439779        0.2437617477
 H         -2.0712729144       -1.8135309086       -0.1319585978
 H          2.1737815979        1.8267920751       -2.0528809554
