  41
        -64.88249538
 C         -4.3860960438        1.3355175433       -0.8167039959
 N         -3.8670715552        0.9221251407        0.4601403947
 C         -2.9814093634        1.8239423919        1.1739292462
 C         -1.5663653053        1.8763769431        0.6031789639
 C         -0.8125738273        0.5419514970        0.7078420697
 O          0.5547078516        0.8868241567        0.4917949794
 C          1.5389425848       -0.0424516625        0.6652271813
 C          1.3710220027       -1.2793710553        1.2355243711
 C          2.4635513973       -2.1479840881        1.3815667759
 C          3.7111504003       -1.7873558183        0.9638159115
 C          3.9238473735       -0.5234010286        0.3729875850
 C          5.1976406954       -0.1118602373       -0.0715318502
 C          5.3794724290        1.1157382983       -0.6451767915
 C          4.2938319362        1.9894152340       -0.8033654134
 C          3.0456975701        1.6221674873       -0.3814721303
 C          2.8303722625        0.3644762232        0.2159526325
 C         -1.2696989561       -0.4592984714       -0.3064968700
 C         -1.7490077186       -1.7192954844       -0.1253399454
 C         -2.0464947787       -2.3778928557       -1.3404074637
 C         -1.7741115916       -1.6152208446       -2.4275542360
 S         -1.1510873445       -0.0752516633       -1.9929746591
 N         -4.2561897517       -0.2158396638        0.8970602482
 O         -3.8101807096       -0.6111568586        2.0013398795
 H         -5.0430166267        0.5528255593       -1.1848950577
 H         -4.9413427317        2.2662526025       -0.7069644423
 H         -3.5691875910        1.4866659507       -1.5215906910
 H         -3.4197020646        2.8224932919        1.1394575095
 H         -2.9523331058        1.4702799742        2.2099698752
 H         -1.5766478136        2.1885263895       -0.4415470131
 H         -0.9968118643        2.6120897763        1.1716151674
 H         -0.9473751704        0.1196438602        1.7151213305
 H          0.4039589981       -1.6064739563        1.5818611642
 H          2.2945925396       -3.1134258426        1.8345415406
 H          4.5481100362       -2.4594219288        1.0777855631
 H          6.0290266185       -0.7904750461        0.0517277816
 H          6.3593793870        1.4196555949       -0.9815038543
 H          4.4504515124        2.9542191546       -1.2612003202
 H          2.2023623436        2.2842600645       -0.4984266736
 H         -1.9193281911       -2.1555742070        0.8439960838
 H         -2.4434856228       -3.3750245187       -1.3900160012
 H         -1.8979747278       -1.8555908393       -3.4636319530
