  47
        -84.26099555
 C         -5.6889376284       -0.3134502466       -1.1346065917
 C         -5.1511312975       -0.4134208131        0.2904455350
 C         -6.1864518054        0.0742677851        1.3015654471
 C         -3.8725805693        0.4148603858        0.4695852767
 C         -3.1857285270        0.0782767514        1.8544143987
 O         -2.8520026909        1.0569269107        2.5420577001
 O         -3.0417873515       -1.1239009857        2.1224374235
 N         -2.9057822809        0.2112277514       -0.5791640693
 N         -2.4323564549        1.1409702628       -1.3380227197
 O         -2.8610472364        2.3106289107       -1.1887926797
 C         -2.3081181554       -1.1077537736       -0.8156693601
 O         -2.6709979567       -1.5724716229       -2.0732083534
 C         -0.8073647549       -1.0719410249       -0.5981278337
 C         -0.2365652113       -0.2442892568        0.3588545161
 C          1.1272801984       -0.2615230659        0.5712254214
 C          1.9567148099       -1.0964050920       -0.1716620490
 C          3.4025833882       -1.1268718798        0.0929406264
 C          4.0413402223       -2.3485995861        0.2861859895
 C          5.3830565778       -2.4089825151        0.6137358892
 C          6.1098738601       -1.2387437648        0.7600217719
 C          5.4943499362       -0.0186085737        0.5546026941
 C          4.1474739402        0.0525078403        0.2113223771
 C          3.5719241043        1.3614293650       -0.0696940039
 N          2.8364295443        1.6633910138       -1.1515579011
 N          2.6011418510        2.9657793109       -1.0434089017
 N          3.1540177882        3.4309606197        0.0405502044
 N          3.7873377778        2.4528784702        0.6815733328
 C          1.3774496801       -1.9322000446       -1.1207721751
 C          0.0121895438       -1.9209207197       -1.3300613093
 H         -5.0112974262       -0.7984139699       -1.8324374430
 H         -6.6602698698       -0.7955321129       -1.1945589598
 H         -5.7933392202        0.7320205290       -1.4201878769
 H         -4.9012024599       -1.4548881488        0.5222844532
 H         -6.4650173042        1.1035129949        1.0854247684
 H         -7.0721064544       -0.5533123837        1.2650047427
 H         -5.7666677105        0.0380544296        2.3058387054
 H         -4.0926057798        1.4907928084        0.4649509726
 H         -2.7575781028       -1.7837209539       -0.0777453044
 H         -0.8524073085        0.4171352553        0.9546377287
 H          1.5514648517        0.3835166990        1.3303574789
 H          3.4590018409       -3.2538634860        0.2018361399
 H          5.8578742348       -3.3657930425        0.7646266524
 H          7.1545595834       -1.2722232815        1.0279355806
 H          6.0432355618        0.9073064062        0.6526081565
 H          2.0073090707       -2.5811851773       -1.7093483904
 H         -0.4321605380       -2.5789880796       -2.0606505719
 H         -2.2213113727       -1.0374252453       -2.7472826321
