  23
        -29.85288156
 C         -1.6955620218       -1.0294585169        1.2643468314
 C         -1.3856435120       -0.2288603635        0.0024571484
 C         -1.6996196420       -1.0142826999       -1.2680613846
 N          0.0031723557        0.2263789726        0.0023287344
 N          0.3543789154        1.4582449451        0.0032058578
 O         -0.5364718255        2.3407485177        0.0044110290
 C          1.1042547938       -0.7346009163       -0.0015149268
 C          1.9518840133       -0.5605656115        1.2562323872
 C          1.9458097228       -0.5573129808       -1.2630006484
 H         -2.7597456099       -1.2443952035        1.2955398524
 H         -1.1532802626       -1.9706785333        1.2789483533
 H         -1.4353534182       -0.4559721937        2.1510299256
 H         -1.9749454983        0.6977759564        0.0089771642
 H         -1.1534167550       -1.9528941304       -1.2976939215
 H         -2.7630720107       -1.2330672073       -1.2964615342
 H         -1.4463439265       -0.4280222516       -2.1483911197
 H          0.6558292927       -1.7293006738       -0.0018490757
 H          2.7576959379       -1.2877505796        1.2582996883
 H          2.3755662539        0.4391708507        1.2787847554
 H          1.3492977522       -0.7043933699        2.1491579531
 H          1.3360435435       -0.6865434930       -2.1532689162
 H          2.3797574161        0.4380579979       -1.2792460656
 H          2.7439863876       -1.2927283869       -1.2770687849
