  89
       -145.17151060
 C         -0.8582536452       -2.5616481433        2.2739888305
 C         -1.5351530865       -1.1962220133        2.2518559436
 C         -3.0199637532       -1.2972551049        2.5945114367
 C         -3.6874031993        0.0728590768        2.6755326500
 C         -5.1719204162       -0.0363415988        3.0171095475
 C         -5.8329776073        1.3345139057        3.1383750333
 O         -5.7878099489        2.0290390650        1.8916366463
 C         -6.9526347078        2.2487317689        1.2266464912
 O         -8.0412217658        1.9306161668        1.6754506248
 N         -6.7674576228        2.9587224293        0.1046027764
 C         -5.8198420071        2.7754929961       -0.7658572180
 N         -5.5385704268        3.7283215471       -1.6432226063
 C         -5.0781713261        1.4975278637       -0.8763556769
 C         -5.7513106748        0.2872680768       -0.7285528589
 C         -5.0680223597       -0.9077463211       -0.8185692578
 C         -3.6926769211       -0.9029919382       -1.0374782088
 N         -3.0139570443       -2.1384260987       -1.1068334946
 N         -3.4716369573       -3.0851387838       -0.3602559255
 O         -2.9022656087       -4.1920622826       -0.4143376207
 C         -1.9116502700       -2.3712992904       -2.0867456007
 O         -2.1207605536       -1.6519199459       -3.2408470874
 C         -0.5849801676       -2.1006999879       -1.4439661114
 N         -0.1552564905       -0.8787396082       -1.2406320783
 C          1.0723036825       -1.0134247293       -0.6525609937
 C          1.9662530061       -0.0451325776       -0.2154729150
 C          3.1514343874       -0.4845854562        0.3494755633
 C          4.1395830342        0.4834840113        0.8927554918
 O          4.6282250280        0.3372096557        2.0114570563
 N          4.4172101877        1.5753271558        0.1369257936
 C          5.2732577678        2.6089467668        0.6911775625
 C          6.7430360224        2.3787928544        0.2950017036
 C          7.1619668244        0.9909899777        0.7215515502
 O          6.9065685000       -0.0163992041        0.0912413387
 O          7.8389887186        1.0175024097        1.8541290736
 C          8.2299972262       -0.2185071716        2.4745537969
 C          7.3894009456       -0.4581656633        3.7184114391
 C          4.1274545387        1.6684257068       -1.2380737452
 C          4.3185184613        0.5833973128       -2.0930936532
 C          4.0089017835        0.7465736186       -3.4305581129
 C          3.5374338138        1.9766015135       -3.8698590579
 C          3.4269160543        3.0000967111       -2.9445564268
 N          3.7158433488        2.8553971252       -1.6606234071
 C          3.4271079990       -1.8532000384        0.4985743726
 C          2.5550301391       -2.8237125892        0.0600124602
 C          1.3687910677       -2.3917846616       -0.5187861160
 N          0.2897375680       -3.0597663707       -1.0364997607
 C          0.1463120082       -4.4881665629       -1.1379378043
 C         -3.0056294781        0.3001996601       -1.1579657535
 C         -3.7024276384        1.4926214045       -1.0894369947
 H          0.1942390839       -2.4718589578        2.0128631804
 H         -0.9289512103       -3.0043204737        3.2645157095
 H         -1.3375350864       -3.2406765020        1.5710471002
 H         -1.0402145793       -0.5416167531        2.9722124296
 H         -1.4179790771       -0.7439818833        1.2643160695
 H         -3.5240716212       -1.9086241806        1.8414041476
 H         -3.1289300968       -1.8052012715        3.5554070648
 H         -3.1888469754        0.6699321218        3.4418779144
 H         -3.5787064627        0.5953737447        1.7237755898
 H         -5.6859360218       -0.6117011926        2.2442130563
 H         -5.2983726166       -0.5546829939        3.9683180745
 H         -6.8809006966        1.2382003014        3.4420576467
 H         -5.2969950633        1.9605730976        3.8565240144
 H         -6.0445322503        4.5981479983       -1.5947498727
 H         -6.8179066945        0.2889303784       -0.5564172031
 H         -5.5856998464       -1.8478441423       -0.7198577105
 H         -2.0024489144       -3.4383622049       -2.3367019575
 H          1.7297584661        1.0026089929       -0.2994798002
 H          4.9306076408        3.5677978166        0.3033114147
 H          5.1706080341        2.5727845984        1.7773268686
 H          6.8415098594        2.4538740789       -0.7883705600
 H          7.3708649361        3.1144946709        0.7919658828
 H          8.1009987156       -1.0267031259        1.7483374930
 H          9.2867731639       -0.1020412760        2.7228419396
 H          7.6570942750       -1.4123099381        4.1601327615
 H          7.5570831956        0.3351452829        4.4408883170
 H          6.3345643599       -0.4673093328        3.4507157052
 H          4.7263076447       -0.3383408553       -1.7110760732
 H          4.1482610988       -0.0704789749       -4.1213264120
 H          3.2834136291        2.1393569262       -4.9037320858
 H          3.0948347544        3.9881703008       -3.2291324073
 H          4.3622014795       -2.1293875770        0.9620248454
 H          2.7900212163       -3.8694819984        0.1739124416
 H          0.8858032062       -4.9598133115       -0.4969883679
 H         -0.8485243352       -4.7908174937       -0.8074977153
 H          0.3001799932       -4.8153496204       -2.1672304141
 H         -1.9303135311        0.3031966838       -1.2605135553
 H         -3.1634153291        2.4234500917       -1.1611920946
 H         -4.9293804767        3.5408915322       -2.4226275990
 H         -1.7487321073       -0.7587723270       -3.1563361389
