  11
        -17.18754241
 C         -0.4830278611       -1.4340288173       -0.0000229111
 N         -0.3928401259        0.0089252303       -0.0001930410
 C         -1.6260949041        0.7501486016        0.0001860469
 N          0.6908052226        0.6875599528       -0.0003017389
 O          1.7824356599        0.0651805687        0.0002386684
 H         -1.0123906925       -1.7698562369        0.8900913200
 H         -1.0134317633       -1.7701476678       -0.8894638294
 H          0.5309364638       -1.8343869598       -0.0004015057
 H         -1.3913556814        1.8106231387       -0.0022417998
 H         -2.2088604119        0.4980565703       -0.8853760344
 H         -2.2062219554        0.5016647031        0.8885350730
