  21
        -33.17117946
 C         -2.6616967936       -0.3653559180        0.5231132061
 N         -1.6840155928       -0.6877307207       -0.4998921887
 C         -0.6598522712       -1.6136103607       -0.0837817539
 C          0.4048557413       -0.9460901293        0.8117353352
 N          0.9601791233        0.1797516967        0.0946974043
 N          2.1816189792        0.3165479366       -0.2906954467
 O          2.9931176027       -0.5896237128        0.0145196085
 C          0.0013779890        1.1778983095       -0.3561242196
 O         -0.5638107912        1.8470764146        0.7249151158
 C         -1.1091254842        0.4520712550       -1.1653326954
 H         -2.2528146517        0.2189400047        1.3537168793
 H         -3.4621388825        0.2089803930        0.0615994778
 H         -3.0777844099       -1.2941213537        0.9075876097
 H         -1.1158802844       -2.4428900873        0.4561425227
 H         -0.1675845379       -2.0049156090       -0.9796371102
 H         -0.0555231661       -0.5784969212        1.7308631716
 H          1.2239712666       -1.6288918999        1.0450211776
 H          0.5516813421        1.8552104015       -1.0211215952
 H         -0.6599660067        0.1141993270       -2.1030758977
 H         -1.8924610680        1.1777161563       -1.3815526244
 H          0.0450696968        2.5068676887        1.0854814046
