  26
        -42.02957386
 C         -3.4393257446       -0.9894691453        0.4112379536
 O         -2.4297844497       -0.1036619558       -0.0299286420
 C         -1.7762118440        0.5675099836        1.0359217866
 C         -0.8121810330        1.6047857229        0.4634535312
 N          0.4543711439        1.0478671368        0.0356531359
 N          1.4929752337        1.5210729512        0.6302127269
 O          2.6178946166        1.1376298361        0.2457404050
 C          0.5281189196        0.0983845939       -1.0816358360
 O         -0.4033762606        0.3925469153       -2.0572170345
 C          0.3742531615       -1.3690332876       -0.5919512886
 O          1.0440166833       -1.6861805309        0.6003053367
 C          2.4313726915       -1.9364630701        0.4712378114
 H         -4.2138257311       -0.4486537053        0.9629629986
 H         -3.8690165565       -1.4366214091       -0.4810918357
 H         -3.0210552697       -1.7704442551        1.0545074524
 H         -2.5241541364        1.0835399153        1.6505391978
 H         -1.2352203160       -0.1517101874        1.6660140687
 H         -1.2856346765        2.0965215192       -0.3906719069
 H         -0.5672823113        2.3432234423        1.2257479576
 H          1.5250279689        0.2504629716       -1.5196141075
 H         -0.6839105793       -1.5474074067       -0.3914437715
 H          0.6973847652       -2.0223492567       -1.4127120669
 H          2.9851680358       -1.0152945699        0.2611032186
 H          2.7512021937       -2.3367342832        1.4300411625
 H          2.6205793999       -2.6664871973       -0.3209673144
 H         -1.2936391491        0.1664277178       -1.7268530658
