  31
        -53.75466576
 O         -1.3107753799        1.0752525474       -2.5433670515
 N         -1.7119708879        0.0632397324       -1.9287924290
 N         -2.2680258126        0.2281765789       -0.7839197670
 C         -2.3770380821        1.4927449369       -0.0752226662
 C         -1.5849275296        1.4030995015        1.2426388850
 C         -2.1869440463        0.2736137846        2.0863382106
 C         -1.7408220537       -0.9486321411        1.2755283659
 C         -0.3268809970       -0.5766739095        0.9192027733
 C          0.7305147256       -1.3664512758        0.5883656795
 C          1.9516398062       -0.7399831865        0.2450710366
 N          3.0128800771       -1.5032414935       -0.0899115110
 C          4.1211901049       -0.8850053973       -0.4083062048
 C          4.2234862281        0.5186586918       -0.3988494682
 N          3.2150485056        1.2879262371       -0.0766723432
 C          2.0530956103        0.6829383733        0.2472759230
 C          0.9295171348        1.4738710463        0.5837955583
 C         -0.2273844125        0.8404782903        0.9138408241
 C         -2.5917860848       -0.9863424566       -0.0265033709
 O         -2.4370089435       -2.1260002811       -0.7794010289
 H         -1.9632419834        2.2553138227       -0.7413718247
 H         -3.4295596373        1.7057388026        0.1196211984
 H         -1.5612149654        2.3756809431        1.7296175288
 H         -1.7347389852        0.2558854829        3.0770115887
 H         -3.2670589616        0.3471204718        2.1887413004
 H         -1.8392136712       -1.9054336156        1.7847291538
 H          0.6815732335       -2.4431182521        0.5809690173
 H          4.9626165795       -1.5070935625       -0.6787030866
 H          5.1475799958        1.0158714601       -0.6578681772
 H          1.0255300790        2.5472062210        0.5619503871
 H         -3.6565801913       -0.9466837927        0.2378789309
 H         -1.5483017142       -2.1677339525       -1.1620575780
