  20
        -29.10326765
 C         -2.6933330802       -0.2405219308       -0.6452790429
 N         -1.7922949406       -0.1554678249        0.4860793621
 C         -0.8228205742       -1.2208486756        0.5608584037
 C          0.3258053581       -1.0581157488       -0.4595699404
 N          0.9145737238        0.2522805393       -0.2951245143
 N          2.1332505846        0.5037280360        0.0159989650
 O          2.9197265471       -0.4728531456        0.1400059441
 C         -0.0070707334        1.3552143865       -0.3699939260
 C         -1.1489848902        1.1260335731        0.6479111709
 H         -3.4375699678        0.5477353105       -0.5551787982
 H         -2.1994396217       -0.1446188691       -1.6205333708
 H         -3.2029122236       -1.2013137951       -0.6104198476
 H         -0.3956802663       -1.2220896205        1.5680326328
 H         -1.3177691975       -2.1773089850        0.3929674580
 H          1.1107312866       -1.7995267853       -0.2939884392
 H         -0.0555284473       -1.1504224311       -1.4791098644
 H          0.5373642919        2.2714269158       -0.1482908217
 H         -0.4193442561        1.4060042787       -1.3809756118
 H         -1.8895144103        1.9181121821        0.5424791187
 H         -0.7312458831        1.1680944689        1.6573091244
