  21
        -32.06813689
 C          1.7753666270       -1.9864563347       -1.0597928611
 C          1.9756657528       -1.2268173931        0.2467371853
 N          1.2448765420        0.0266166826        0.2356206588
 N          1.9652994866        1.0939033943        0.2981968848
 O          1.3918798980        2.2059274798        0.2860459973
 C         -0.1738453581       -0.0118343739        0.1189688788
 C         -0.8018225829        0.7184163114       -0.8826657473
 C         -2.1807910670        0.6872127136       -0.9912538533
 C         -2.9324224742       -0.0681477805       -0.1070572121
 C         -2.3034197350       -0.7913889134        0.8935875586
 C         -0.9260590080       -0.7650530352        1.0131553295
 H          0.7255501925       -2.2282067314       -1.2061872819
 H          2.1168377585       -1.3896502176       -1.9013483612
 H          2.3467734448       -2.9085022762       -1.0316016797
 H          1.6341244586       -1.8329646548        1.0878650156
 H          3.0248154994       -0.9685188329        0.3906816062
 H         -0.2108374958        1.3056470172       -1.5690624069
 H         -2.6644947487        1.2539513147       -1.7713156541
 H         -4.0072259144       -0.0898704842       -0.1953051949
 H         -2.8868922351       -1.3758062929        1.5875348033
 H         -0.4412998090       -1.3127890874        1.8055065581
