  15
        -24.42283454
 C         -1.0261426053       -1.3329804778       -0.9580677920
 C         -0.7129616228       -0.4928577719        0.2760817583
 O         -1.8211973363        0.1200197289        0.8346013754
 N          0.3196926707        0.5078528472       -0.0643618744
 C         -0.0793421589        1.8290943287       -0.4781899612
 N          1.5764231972        0.2729272589        0.0094421654
 O          1.9355275832       -0.8777981894        0.3558121603
 H         -1.7662150961       -2.0855798161       -0.7025514036
 H         -1.4069543350       -0.7031589500       -1.7586839787
 H         -0.1217885993       -1.8327484791       -1.2959223136
 H         -0.2574199648       -1.1197411795        1.0560603690
 H          0.8226190866        2.4121500534       -0.6370976211
 H         -0.6486714710        1.7701866355       -1.4053899735
 H         -0.6887258553        2.2872316388        0.3001522652
 H         -2.4279366818        0.4113513986        0.1355438805
