  38
        -63.55061770
 C         -2.5718811070       -1.6642578263       -1.6928989867
 N         -3.2796881937       -1.5638845732       -0.4422741366
 N         -4.3582117436       -2.2478457420       -0.3506942129
 O         -5.0116831753       -2.1943533303        0.7182259175
 C         -2.7479960056       -0.7143019440        0.6214514903
 C         -1.4802719948       -1.3265503142        1.2215817879
 C         -0.8360212643       -0.3197480535        2.1624701196
 C         -0.3314905992        0.8886492013        1.3604950430
 C          0.8938496045        0.5042418085        0.5609886394
 C          0.8315129110        0.2015651877       -0.7933612450
 C          1.9629211675       -0.1895965300       -1.4868794511
 C          3.1785760541       -0.2830242706       -0.8304871700
 Cl         4.6017511723       -0.7725824163       -1.6979016940
 C          3.2535047017        0.0227350038        0.5230417144
 Cl         4.7741605417       -0.0802401784        1.3577883309
 C          2.1191684615        0.4129760206        1.2115716392
 C         -1.4243122000        1.4451721219        0.4835109418
 C         -1.3040174005        2.7488348693        0.0125382974
 C         -2.2811257914        3.3165403677       -0.7816562474
 C         -3.4121479265        2.5842874768       -1.1053733211
 C         -3.5422031833        1.2890578776       -0.6437407661
 C         -2.5485247913        0.7010897912        0.1352635910
 H         -3.1625695637       -2.2834448955       -2.3620976806
 H         -2.4411168647       -0.6722164811       -2.1232743237
 H         -1.5962793102       -2.1235279694       -1.5397899078
 H         -3.5394969906       -0.7108757001        1.3882934397
 H         -1.7422224152       -2.2411464218        1.7559737887
 H         -0.7698352078       -1.5777640477        0.4339230633
 H         -1.5674105544        0.0162207416        2.8992582030
 H         -0.0038584239       -0.7841233120        2.6909725724
 H         -0.0314549933        1.6683379722        2.0675741719
 H         -0.1047527673        0.2849310552       -1.3209084916
 H          1.9116518695       -0.4231712188       -2.5373263656
 H          2.1999710846        0.6475232257        2.2608863470
 H         -0.4272240797        3.3198815611        0.2788551770
 H         -2.1698127956        4.3288035006       -1.1380854853
 H         -4.1917686543        3.0210318461       -1.7103320992
 H         -4.4310041627        0.7220741472       -0.8839731005
