  27
        -47.44748939
 C         -2.6816491550       -1.0455207726       -0.7197598462
 N         -1.7345949394       -0.7550931294        0.3358752157
 N         -0.8847119994       -1.5852009343        0.8230326662
 O         -0.8523914498       -2.7413496018        0.3465458183
 C         -1.6542416867        0.6044503685        0.8679078323
 O         -2.9083786855        1.1483878961        1.0387637431
 C         -0.7683629026        1.4891671524       -0.0566701555
 O         -1.5303530517        1.7457711661       -1.2148657131
 C          0.5484454423        0.7991794618       -0.3177001667
 C          0.7357298620        0.0257967151       -1.4554039076
 C          1.9318152833       -0.6420350913       -1.6443708093
 C          2.9455224088       -0.5459121076       -0.7101102280
 C          2.7650807182        0.2324834756        0.4287262742
 O          3.7260575012        0.3719884930        1.3765999469
 C          1.5633406500        0.9051647899        0.6189067409
 H         -2.4483222310       -2.0405706301       -1.0978848882
 H         -3.6919282925       -1.0309108282       -0.3131052024
 H         -2.5822902412       -0.2999275178       -1.5054351118
 H         -1.1720257433        0.5166174101        1.8463697210
 H         -0.5924940013        2.4229759018        0.4964561919
 H         -0.0533443623       -0.0589270837       -2.1860288581
 H          2.0735902629       -1.2495963335       -2.5248048308
 H          3.8729887458       -1.0781859035       -0.8612440964
 H          1.4392028847        1.4996612357        1.5102199952
 H         -3.2036926868        1.5240676415        0.1897541092
 H         -1.0876578895        2.4143026599       -1.7537179938
 H          4.5112643174       -0.1486347311        1.1490410601
