  45
        -65.09383153
 C         -1.3199619620        3.1785746693        0.2832634756
 C         -1.3707546116        1.8249370409       -0.4061985228
 O         -1.7562575354        0.8426876141        0.5672257700
 C         -2.2358022640       -0.3741113908        0.0661949727
 C         -1.1747427243       -1.1972469734       -0.7075581493
 N         -0.1802890629       -1.7704005711        0.1607385944
 C          0.7303016584       -0.9010652086        0.8736623235
 C          1.9900008358       -0.6039380881        0.0301697601
 O          2.9908037043        0.0204657527        0.7761295313
 C          2.6553980933        1.3034428197        1.3206654197
 C          3.9445915007        2.0102839126        1.7049192132
 O          1.5873807860        0.1339337727       -1.0888878554
 C          2.4411558740        0.0610978465       -2.2314743321
 C          3.7340388902        0.8530004178       -2.0916106678
 N         -0.1506163810       -3.0546370067        0.2401985474
 O          0.7262249603       -3.5673075794        0.9692105724
 O         -3.3209728004       -0.2242994192       -0.7995971728
 C         -4.6008443962       -0.0662227424       -0.1860840564
 C         -4.8162714949        1.2941796973        0.4648297423
 H         -2.2998094412        3.4442987483        0.6695305367
 H         -0.6184713742        3.1453456836        1.1124484586
 H         -0.9985604820        3.9333641880       -0.4272226512
 H         -2.1043017361        1.8239109135       -1.2188586915
 H         -0.3843471345        1.5686868284       -0.8116152453
 H         -2.5343493441       -0.9312844240        0.9701988707
 H         -1.6898165453       -2.0139161425       -1.2123488809
 H         -0.6860402673       -0.5555660205       -1.4422408235
 H          0.2060373730        0.0208434472        1.1176871635
 H          1.0523810642       -1.4246265425        1.7790144166
 H          2.4456555339       -1.5589419580       -0.2828771282
 H          2.1038839691        1.8773756603        0.5680469315
 H          2.0207816471        1.1656373839        2.2044235862
 H          4.5660358829        2.1659624788        0.8279399910
 H          3.7106702531        2.9696570567        2.1549746308
 H          4.4961072705        1.4031570203        2.4167630689
 H          2.6625776580       -0.9943988936       -2.4382988302
 H          1.8308382565        0.4653706817       -3.0419294178
 H          3.5140601226        1.8989776842       -1.8944848811
 H          4.3336228587        0.4583018299       -1.2750238186
 H          4.2986894521        0.7767894638       -3.0158507067
 H         -5.3019453143       -0.2129608716       -1.0097123525
 H         -4.7397190790       -0.8660642524        0.5529226275
 H         -5.8208536174        1.3375737796        0.8744618382
 H         -4.0988379464        1.4500951931        1.2667736098
 H         -4.6992378599        2.0854131335       -0.2709800797
