  32
        -44.98988230
 O         -4.0797434272        0.8574619054        0.3309059152
 N         -3.4090034781       -0.1692594878        0.1345877092
 N         -2.1251261791       -0.0571032808        0.1211280782
 C         -1.3592554745        1.1615179572        0.3159653007
 C         -0.4092625181        1.3518183451       -0.8587039125
 N          0.4929724102        0.1814155893       -1.0115827662
 C          1.5115285014        0.0373854118        0.0747210716
 C          2.5715552937       -1.0251420337       -0.2887790638
 C          3.9374836849       -0.3791510918       -0.0030031876
 C          3.6169627745        0.8124176275        0.8967448861
 C          2.3002780264        1.3274588896        0.3203990470
 C         -0.3237263410       -1.0421410758       -1.2064034342
 C         -1.3460239905       -1.2741145914       -0.0821829917
 O         -0.6877245305       -1.6341403727        1.0888093972
 H         -2.0738362956        1.9867845683        0.3720143354
 H         -0.8230714840        1.0934661899        1.2646945718
 H         -0.9896918815        1.4572214692       -1.7774283719
 H          0.1771668122        2.2561168886       -0.7077998169
 H          0.9901395400       -0.2657501787        0.9813512365
 H          2.4362997039       -1.9163892951        0.3199134991
 H          2.5150270050       -1.3195222665       -1.3353333161
 H          4.6313550781       -1.0733488675        0.4654570932
 H          4.3961430344       -0.0264750998       -0.9270208666
 H          3.4744125481        0.4814766940        1.9256361090
 H          4.4011150825        1.5663430213        0.8875271916
 H          2.5080002179        1.8395316809       -0.6200451066
 H          1.8039905719        2.0134443152        1.0024832188
 H         -0.8674055501       -0.9547254080       -2.1475604740
 H          0.3268740832       -1.9155332744       -1.2410214816
 H         -2.0550922653       -2.0435020314       -0.4112706626
 H          1.0284597911        0.3271226533       -1.8773459491
 H         -1.2641482118       -2.1123820288        1.6990720301
