  46
        -86.35902889
 C         -5.8863910399       -1.0698831832       -0.6894522414
 C         -4.4956332857       -1.6680423086       -0.8572774355
 C         -3.5356867634       -1.1328274802        0.2048608738
 C         -2.1571444538       -1.7767998508        0.0730654943
 O         -2.1311715394       -3.1127246392        0.4381030417
 N         -1.1738003515       -1.0042052714        0.8609441437
 N         -1.5751722397       -0.5701198269        2.0169494076
 O         -0.7584711951        0.0173193571        2.7404576787
 C          0.1686882237       -0.8990610894        0.4071185638
 C          0.8999398404       -2.0398048786        0.1058261106
 C          2.2431895208       -1.9558390216       -0.2296264568
 C          3.0429444948       -3.2302500709       -0.5544521760
 O          4.2535864264       -3.0755452198       -0.8029107990
 O          2.4106730019       -4.3022201887       -0.5396592372
 C          2.8664515152       -0.7143633669       -0.2536428471
 C          2.1329580901        0.4168541408        0.0169944824
 S          2.8397262495        2.0468336231       -0.1351054497
 N          2.6585135795        2.8490474102        1.2886068731
 O          4.2603463310        1.9276040702       -0.3700200280
 O          2.0909849111        2.7696292069       -1.1400035687
 C          0.7839789280        0.3595444542        0.3369186862
 O          0.1420260675        1.5300833306        0.6024144483
 C         -1.0695630974        1.7697583556       -0.0414067456
 C         -2.0105229936        2.5386637148        0.6297492562
 C         -3.2083743760        2.8420660538        0.0068067366
 C         -3.4660207631        2.3835696303       -1.2749415549
 C         -2.5179613082        1.6237652807       -1.9401747665
 C         -1.3159169957        1.3119922955       -1.3286022308
 H         -6.5523077883       -1.4411128525       -1.4629686783
 H         -6.3004055182       -1.3336588708        0.2798813238
 H         -5.8382350606        0.0135419435       -0.7605632156
 H         -4.5438668900       -2.7555862426       -0.7870177792
 H         -4.1048290543       -1.4172401644       -1.8449003658
 H         -3.4323525534       -0.0540166359        0.0958167759
 H         -3.9253295732       -1.3346611738        1.2025963931
 H         -1.8030665589       -1.7412146723       -0.9630687242
 H          0.4375376231       -3.0160057713        0.1405607241
 H          3.9142985631       -0.6384924531       -0.4989304157
 H          1.6858677138        2.9370596524        1.5435749941
 H         -1.7912185773        2.8759173072        1.6297720745
 H         -3.9405167578        3.4351402785        0.5304138188
 H         -4.4007383718        2.6196915032       -1.7570273611
 H         -2.7055736798        1.2702128258       -2.9414337079
 H         -0.5588242889        0.7360761423       -1.8416417919
 H         -2.5913905036       -3.2369911953        1.2839804137
 H          3.2135498227        2.4328936217        2.0200808788
