  22
        -33.34311636
 C         -2.5688493725        0.2431842134       -0.6880657229
 N         -1.7405589660        0.6463880603        0.4654914880
 C         -0.6956779553        1.6398564162        0.1157838013
 C          0.4007759854        1.0054622702       -0.7306033060
 N          0.9664913326       -0.1225878717       -0.0107928203
 N          2.2073696335       -0.3106120587        0.2790754688
 O          3.0256926185        0.5536375658       -0.0782271833
 C          0.0174394980       -1.1583579183        0.3867018928
 O         -0.4779063889       -1.8176814992       -0.7327653143
 C         -1.1391731131       -0.5112596520        1.1675275190
 H         -3.4222314070       -0.3315456495       -0.3389809733
 H         -2.9277190450        1.1245455216       -1.2117179503
 H         -1.9971053024       -0.3811842454       -1.3671462696
 H         -1.1452126271        2.4643191408       -0.4374493003
 H         -0.2590147540        2.0287501188        1.0379563598
 H          0.0193900418        0.6535689536       -1.6912706569
 H          1.2113260125        1.7162143832       -0.9098436282
 H          0.5600130579       -1.8325116670        1.0602755533
 H         -0.7539658501       -0.1836251812        2.1336909158
 H         -1.9010489929       -1.2769161063        1.3193708826
 H         -2.3732440281        1.1030634398        1.1329674829
 H          0.1207033320       -2.5069695734       -1.0465098496
