  89
       -145.16655463
 C         -0.1479318099        0.2125385146       -2.4869644556
 C          1.0552393227        0.9048784362       -1.8567013042
 C          2.3865856951        0.5009568331       -2.4925367760
 C          2.7669327987       -0.9542739243       -2.2309562400
 C          4.1396952867       -1.2878294499       -2.8118611354
 C          4.5293307588       -2.7428803547       -2.5623671189
 O          4.6658575631       -2.9952349557       -1.1633284793
 C          5.8996041270       -3.2794669320       -0.6693699381
 O          6.8874760751       -3.3868688914       -1.3768338550
 N          5.8664990049       -3.5495794978        0.6434081878
 C          5.1984837023       -2.8867393469        1.5401503252
 N          4.9610739077       -3.4345706708        2.7234230616
 C          4.7444448284       -1.4938485910        1.3210104155
 C          5.5662183723       -0.5893460959        0.6527386987
 C          5.1398559190        0.7010016197        0.4180793940
 C          3.8692510171        1.0992022913        0.8303807076
 N          3.4476450595        2.4140314721        0.5353959218
 N          3.9569363489        2.9392183830       -0.5283779996
 O          3.6353134058        4.1066074043       -0.8170456662
 C          2.5719320211        3.1937977441        1.4640484762
 O          2.8975953777        2.9273572988        2.7739099688
 C          1.1295772199        2.9403679492        1.1458684368
 N          0.5011058500        1.8983173995        1.6332498955
 C         -0.7628741115        1.9520062625        1.1135596370
 C         -1.8260852987        1.0720711487        1.2589673618
 C         -2.9921154415        1.3668467542        0.5689715149
 C         -4.2016886893        0.5189208790        0.7145854976
 O         -5.3022812586        1.0395021292        0.8706756535
 N         -4.0219467085       -0.8442001129        0.7149673844
 C         -2.9873565926       -1.4454083941       -0.1218898688
 C         -3.5390778615       -1.7965623021       -1.5141820875
 C         -4.2856873902       -0.6114380790       -2.0765352881
 O         -3.7911002470        0.4750818839       -2.2933072352
 O         -5.5597499424       -0.9057653343       -2.2845291681
 C         -6.4578611950        0.1150307009       -2.7483761137
 C         -7.4561898001        0.4597427318       -1.6545440637
 C         -5.0041240285       -1.7191284149        1.2018054551
 C         -5.9622037532       -1.3280037916        2.1412226636
 C         -6.8577563852       -2.2751052616        2.5990370938
 C         -6.7756059312       -3.5792687054        2.1297624726
 C         -5.7712186144       -3.8719449845        1.2256722965
 N         -4.9091838494       -2.9751578776        0.7769235122
 C         -3.1072230578        2.5352796269       -0.2014391737
 C         -2.0574478272        3.4102058015       -0.3609726245
 C         -0.8731079658        3.1005916948        0.2939203172
 N          0.3524114145        3.7136170866        0.3390259539
 C          0.6899101858        4.9534002110       -0.3087476423
 C          3.0359333150        0.1989256736        1.4854949434
 C          3.4806777230       -1.0860752727        1.7375402327
 H         -0.1285070977       -0.8534283302       -2.2797938017
 H         -1.0779280029        0.6238331174       -2.0979621993
 H         -0.1445071406        0.3558042130       -3.5649815587
 H          0.9378943058        1.9862601944       -1.9682468008
 H          1.0831273929        0.6792303956       -0.7887513684
 H          2.3319114831        0.6707534749       -3.5701252062
 H          3.1755289681        1.1496358868       -2.1008766067
 H          2.7810732263       -1.1446225071       -1.1565281099
 H          2.0264336134       -1.6149649036       -2.6824939074
 H          4.1388298280       -1.1207106951       -3.8896912398
 H          4.8966058268       -0.6375295499       -2.3675926178
 H          3.7501698500       -3.4202252426       -2.9217421535
 H          5.4800706004       -2.9826613548       -3.0504030528
 H          5.2732679053       -4.3770579119        2.8939997279
 H          6.5481667429       -0.9013119736        0.3274720023
 H          5.7779239766        1.4073642028       -0.0871494318
 H          2.8373870595        4.2405429764        1.2541082496
 H         -1.7428906706        0.2053239503        1.8936947047
 H         -2.1705953417       -0.7362751637       -0.2314284219
 H         -2.6435657080       -2.3571093451        0.3643713757
 H         -2.7024090678       -2.0300470951       -2.1713327656
 H         -4.2205383517       -2.6418109656       -1.4487827950
 H         -5.8689549875        0.9902978757       -3.0391032308
 H         -6.9602440958       -0.3045136283       -3.6224456661
 H         -6.9379016540        0.8327955908       -0.7723735895
 H         -8.1369682501        1.2242489332       -2.0140406396
 H         -8.0220057607       -0.4247314196       -1.3750369390
 H         -6.0074523785       -0.3125689638        2.4956364814
 H         -7.6097873725       -1.9957917341        3.3210285195
 H         -7.4621410873       -4.3395980454        2.4624915274
 H         -5.6347689908       -4.8699530535        0.8326848159
 H         -4.0499123102        2.7241848719       -0.6904090003
 H         -2.1620192040        4.2927087268       -0.9705427208
 H          0.0052367404        5.1123167570       -1.1379281122
 H          0.6044084636        5.7855909680        0.3917881563
 H          1.7080760353        4.9156869964       -0.6978277717
 H          2.0327786144        0.4847130012        1.7639247518
 H          2.8198786736       -1.7858907524        2.2229669979
 H          4.5968202892       -2.8783470979        3.4794540929
 H          2.3672752246        2.1850127487        3.1086319658
