  30
        -40.24671620
 C         -3.6663018241        0.8714152414        0.0119110052
 C         -2.6493914782       -0.2630271094        0.0677205426
 C         -1.6989051601       -0.2195049163       -1.1251976375
 C         -0.5982997500       -1.2832879612       -1.0444691489
 N          0.3321826035       -1.0502914300        0.0420338241
 N         -0.0482349720       -1.4108030979        1.2149329241
 O          0.7151648342       -1.1912998423        2.1823435113
 C          1.6513292434       -0.4651875255       -0.2509447515
 O          2.2274887144       -1.1218033574       -1.3362191281
 C          1.5541752822        1.0248675172       -0.5834830142
 C          0.9733569334        1.8526906387        0.5591576295
 C          0.9335174723        3.3333680146        0.2025894521
 H         -4.3398337629        0.8203623656        0.8633411559
 H         -3.1649276166        1.8366386367        0.0307417642
 H         -4.2566338634        0.8089549161       -0.8991148293
 H         -2.0759391515       -0.1943811110        0.9958131736
 H         -3.1711265656       -1.2211868943        0.0815176283
 H         -2.2610527687       -0.4001775698       -2.0420334697
 H         -1.2552890126        0.7735861947       -1.1957876966
 H         -1.0585268806       -2.2597378914       -0.8868810921
 H         -0.0116391748       -1.2924543275       -1.9640085164
 H          2.2314604191       -0.5995331610        0.6749366643
 H          2.5676392122        1.3619592226       -0.8065260546
 H          0.9603701444        1.1412167328       -1.4903622300
 H         -0.0363044464        1.5089851046        0.7949082006
 H          1.5793202626        1.7037656122        1.4564399606
 H          0.5178831044        3.9090742510        1.0251990475
 H          1.9352382682        3.7011520277       -0.0043339428
 H          0.3182041219        3.4964045959       -0.6788557141
 H          2.5781089574       -1.9867103008       -1.0819194496
