  44
        -81.83702179
 O         -6.6015603329       -0.0271896098       -1.2311751888
 N         -5.8119888891        0.7594491507       -0.6702636088
 N         -4.5797441628        0.4013535846       -0.5611848818
 C         -4.0085886765       -0.8564772781       -0.9971736902
 C         -3.4137450173       -1.5873564953        0.2175388469
 N         -2.4283043004       -0.7370010995        0.8445346639
 C         -1.0880689646       -0.8510258760        0.5690476307
 C         -0.2717238399        0.2635510569        0.3753227776
 C          1.1016303792        0.1558570079        0.1720117317
 C          1.7129835792       -1.1098211386        0.1365568153
 C          0.9053959945       -2.2354084811        0.3306482856
 C         -0.4366050993       -2.1046675581        0.5471767794
 F         -1.1498457406       -3.2478907686        0.7777139247
 C          3.1469087198       -1.2911169366       -0.0970362317
 O          3.6687126667       -2.4109819909       -0.0961416453
 C          3.8512024911       -0.0420929402       -0.3277830545
 C          5.2851235595        0.0235085602       -0.6201308736
 O          5.8854102178        1.0787832404       -0.7783804526
 O          5.9030369809       -1.1444376858       -0.7059542084
 C          3.1788405149        1.1547680417       -0.2765700835
 N          1.8798586693        1.2848643748       -0.0189702991
 C          1.2827072856        2.5934943050        0.0273796988
 C          0.7668626418        3.1125760692        1.3393017648
 C          2.0009368791        3.7037909702        0.7318466966
 C         -3.0103741710        0.5043966396        1.2903250571
 C         -3.6823261520        1.3038604353        0.1517288557
 O         -2.7110565020        1.8179589948       -0.6982898514
 H         -4.8070294842       -1.4379667068       -1.4628166622
 H         -3.2207415174       -0.6464983735       -1.7247760382
 H         -4.2070592639       -1.8064181011        0.9385864354
 H         -2.9810962204       -2.5255220409       -0.1173314220
 H         -0.7304897773        1.2340592675        0.3325715829
 H          1.3684556992       -3.2098353699        0.3233725313
 H          3.7415878194        2.0601417401       -0.4606754688
 H          0.7269502898        2.8282102348       -0.8723270875
 H         -0.1448564998        3.6876835121        1.3326171336
 H          0.8898134852        2.4839526324        2.2069426316
 H          2.9462955231        3.4840190361        1.2020792945
 H          1.9498097366        4.6890354732        0.2974964263
 H         -3.7871026292        0.2604248291        2.0211708524
 H         -2.2575474668        1.1246218689        1.7709565813
 H         -4.3159447614        2.0914648969        0.5797876768
 H          6.8542236227       -1.0334767454       -0.8974574321
 H         -3.0978280247        2.4531355107       -1.3170487914
