  51
        -87.59981666
 C         -1.3305502874        3.1232232012        0.2217626918
 O         -2.3295498180        2.2347936471       -0.2917901339
 C         -2.7284025471        1.2501974106        0.4776345689
 O         -2.3354619083        1.0629378859        1.6099473563
 C         -3.7878255086        0.3978252650       -0.2212226926
 C         -5.0262306446        0.2045623997        0.6869900800
 C         -6.0968187603       -0.5915748244       -0.0501345595
 C         -5.5647556070        1.5741646214        1.0952721584
 N         -3.2010229981       -0.8632097183       -0.6408854692
 N         -3.6208864544       -1.3068775558       -1.7778477882
 O         -3.1665876331       -2.3873455444       -2.1944374094
 C         -2.1901155341       -1.5573674125        0.1792966758
 O         -2.6153766473       -1.6935195905        1.4885397135
 C         -0.8458626795       -0.8718255079        0.0214885347
 C         -0.4980154553       -0.2215517074       -1.1552338818
 C          0.7243525370        0.4143931792       -1.2652646583
 C          1.6320231224        0.3967188001       -0.2119393866
 C          2.9193584856        1.1033740528       -0.3111015129
 C          2.9398805110        2.4565027641       -0.6324163360
 C          4.1269458758        3.1651291109       -0.6585642998
 C          5.3180185841        2.5243664224       -0.3581033509
 C          5.3166833853        1.1749144617       -0.0609807845
 C          4.1283344203        0.4497003506       -0.0443073868
 C          4.1895392100       -0.9841608472        0.1899715684
 N          3.4200697093       -1.9012842197       -0.4197428096
 N          3.8570524908       -3.0660768134        0.0402990490
 N          4.8330311536       -2.8747077340        0.8841818870
 N          5.0816999408       -1.5760202952        1.0014576344
 C          1.2818400710       -0.2672503595        0.9598383584
 C          0.0590755223       -0.8963470360        1.0752848925
 H         -1.2772738400        3.9426274677       -0.4875698773
 H         -1.6165054506        3.4722681600        1.2139917175
 H         -0.3757870232        2.5989456699        0.2888968838
 H         -4.0946541874        0.9111909147       -1.1380367020
 H         -4.7187120908       -0.3461173268        1.5794523974
 H         -6.4294301820       -0.0540109159       -0.9336973493
 H         -5.7190818060       -1.5621591686       -0.3620824562
 H         -6.9480265222       -0.7538797929        0.6041554701
 H         -4.8321338459        2.1213315762        1.6835002138
 H         -5.8164885400        2.1601213318        0.2151510665
 H         -6.4593180061        1.4493222632        1.6977815879
 H         -2.1395860799       -2.5726092275       -0.2469679883
 H         -1.1743414456       -0.2148782181       -1.9979041402
 H          0.9895372050        0.9122044305       -2.1854959220
 H          2.0059554339        2.9552836739       -0.8459978021
 H          4.1228925948        4.2153103915       -0.9053226856
 H          6.2492983094        3.0697352567       -0.3637138907
 H          6.2347191348        0.6492522937        0.1600316904
 H          1.9797679023       -0.2907464038        1.7855035130
 H         -0.1941723178       -1.4198778292        1.9846398300
 H         -2.4890365791       -0.8413379614        1.9515886808
