  89
       -141.28187794
 C         -6.5998116516       -0.1402186392        1.8019967125
 C         -5.3680816228       -1.0319424173        1.9006744692
 C         -5.2497441183       -1.9730332968        0.7039118697
 C         -4.0473647218       -2.9063406789        0.8302387867
 C         -3.8189854722       -3.7160592695       -0.4448052831
 C         -2.5865179857       -4.6004524563       -0.3451142889
 O         -1.4176723643       -3.7642359936       -0.2390454709
 C         -0.2585309083       -4.3202658213       -0.5071019964
 O         -0.0830198343       -5.4652536778       -0.8594676792
 N          0.7701240801       -3.3934429680       -0.3376807754
 C          2.0754962080       -3.6460791522       -0.5349984862
 N          2.4974164000       -4.7916252420       -0.9840794792
 C          3.0398338863       -2.5819132871       -0.2308069498
 C          2.8606686436       -1.7507293633        0.8761567653
 C          3.7974022222       -0.7834875850        1.1840057063
 C          4.9060562961       -0.6010435725        0.3590232568
 N          5.8358449455        0.4231142647        0.6092515380
 C          5.4105473271        1.6450590497        1.2966562470
 C          4.1087397204        2.1086210229        0.7519283739
 N          3.0042035337        2.1070207521        1.4518664352
 C          2.0137864145        2.4536653015        0.5753944109
 C          0.6409255232        2.5371127299        0.7599533678
 C         -0.1439636808        2.7872868704       -0.3509021216
 C         -1.6224034326        2.8480927005       -0.1603400648
 O         -2.0922341928        3.5855098219        0.6990554517
 N         -2.3868099618        2.0557599547       -0.9739723517
 C         -1.8115959335        0.9166438309       -1.6780424954
 C         -2.0085272608       -0.4106417100       -0.9236287914
 C         -1.3344865927       -0.4182707492        0.4199623230
 O         -0.2773351447       -0.9790822989        0.6539472506
 O         -2.0270829096        0.2362912091        1.3290237067
 C         -1.5282611234        0.2798246482        2.6756399113
 C         -2.2263825708        1.4075405392        3.4116708850
 C         -3.7860942156        2.1630647832       -1.0365511480
 C         -4.4871661309        3.3030172107       -0.6378352913
 C         -5.8611983190        3.3164030287       -0.7907802486
 C         -6.5028024830        2.2133029619       -1.3365823950
 C         -5.7169207858        1.1404265891       -1.7167662074
 N         -4.4027282607        1.1146686005       -1.5763105803
 C          0.4328499481        3.0625185017       -1.6043677196
 C          1.7969713632        3.0239636361       -1.7951343121
 C          2.5805905081        2.6802983291       -0.7019703421
 N          3.9252075549        2.4635383991       -0.5537952239
 C          4.9066734861        2.5531645410       -1.6015477069
 N          7.0330321355        0.2566279059        0.1423322837
 O          7.8497115624        1.1786509495        0.3013172051
 C          5.0893386065       -1.4273979200       -0.7506134075
 C          4.1751746912       -2.4198471977       -1.0317108551
 H         -6.6702352285        0.5165794638        2.6661801391
 H         -6.5517374525        0.4785356465        0.9079264199
 H         -7.5058581727       -0.7403723285        1.7549597916
 H         -4.4769964133       -0.4025671345        1.9496194045
 H         -5.4193339734       -1.6167740154        2.8220202715
 H         -6.1628246928       -2.5659400673        0.6183122779
 H         -5.1612100840       -1.3734175754       -0.2044699991
 H         -3.1537962882       -2.3183944352        1.0446901225
 H         -4.2071783172       -3.5849058390        1.6706988434
 H         -4.6790838398       -4.3586485251       -0.6323837953
 H         -3.7073314878       -3.0402852464       -1.2926426987
 H         -2.6304899666       -5.2362075446        0.5440080858
 H         -2.4796266297       -5.2388708180       -1.2266881011
 H          1.8240198977       -5.5322721539       -1.1800878117
 H          2.0053422621       -1.8705936020        1.5198254072
 H          3.6528387896       -0.1722366656        2.0579930080
 H          5.3080916659        1.4689486249        2.3689165700
 H          6.2163882520        2.3723553449        1.1373184648
 H          0.1989089710        2.3971363338        1.7315421900
 H         -2.3239956145        0.8308556997       -2.6365046944
 H         -0.7506376201        1.0918074838       -1.8377401488
 H         -3.0782802371       -0.5547132836       -0.7821859680
 H         -1.5942662166       -1.2127801515       -1.5312091163
 H         -1.7388024367       -0.6873587098        3.1435292863
 H         -0.4441747338        0.4258840254        2.6436583436
 H         -2.1204534397        2.3416969603        2.8630569572
 H         -3.2870408533        1.1954584348        3.5144066862
 H         -1.7906989753        1.5234435649        4.3986608781
 H         -3.9767273715        4.1522858084       -0.2186656582
 H         -6.4243232415        4.1865345946       -0.4893929514
 H         -7.5724507574        2.1919358564       -1.4637060808
 H         -6.1493602629        0.2532821283       -2.1592590544
 H         -0.2125726190        3.3235692119       -2.4292417025
 H          2.2280601128        3.2395888985       -2.7590925664
 H          4.7141178005        3.4407715041       -2.2025725874
 H          5.9063876599        2.6329597992       -1.1796916997
 H          4.8579682471        1.6724461237       -2.2448536730
 H          5.9512002071       -1.2756546338       -1.3789028529
 H          4.3192726237       -3.0281381095       -1.9097207700
 H          0.4764383030       -2.4570757633       -0.0136011530
 H          3.4876547725       -4.9737891022       -1.0846082102
