  42
        -66.52947430
 C         -5.6227903046       -0.2926421358       -0.4317877920
 C         -4.2848997918       -0.8509221115        0.0513370146
 C         -4.4507872273       -1.6441433371        1.3411809357
 N         -3.3374658109        0.2446314280        0.2495882761
 N         -3.3951855197        0.8781753859        1.3612820020
 O         -2.5901092291        1.8201465729        1.5440359788
 C         -2.4354297862        0.6417320991       -0.8423141465
 O         -3.0789704701        0.6197784107       -2.0624827173
 C         -1.1718996791       -0.2432472131       -0.8602365993
 O         -1.5638084966       -1.4774356998       -1.4128559325
 C         -0.5482815567       -0.4082249459        0.5364606602
 O          0.8114489913       -0.7710667258        0.4576819570
 C          1.7548652427        0.1950493318        0.2193305141
 C          1.4930651505        1.5306608803        0.0423106572
 C          2.5426854030        2.4318974938       -0.1971097643
 C          3.8363521269        2.0048312419       -0.2680160358
 C          4.1440898123        0.6391536132       -0.0891654967
 C          5.4690544280        0.1589955531       -0.1475478996
 C          5.7451962314       -1.1671623554        0.0369069837
 C          4.7075214899       -2.0758416719        0.2911618574
 C          3.4113152249       -1.6436577639        0.3519651450
 C          3.0970624167       -0.2831200494        0.1614260373
 H         -5.4862578021        0.3091034523       -1.3262127447
 H         -6.2992137972       -1.1112713757       -0.6549578190
 H         -6.0615031539        0.3290217890        0.3441976135
 H         -3.8452244622       -1.4907295966       -0.7179313763
 H         -5.1075228685       -2.4884685470        1.1578878631
 H         -3.4910395815       -2.0160034917        1.6891219186
 H         -4.8815018397       -1.0188626892        2.1162657215
 H         -2.1599504618        1.6821395718       -0.6179632528
 H         -0.4397961195        0.2494687703       -1.5182268793
 H         -0.6821428859        0.4984227096        1.1351161990
 H         -1.0347833866       -1.2417494980        1.0504421295
 H          0.4874027845        1.9188671046        0.0909299419
 H          2.3013165880        3.4757266975       -0.3283852534
 H          4.6385023909        2.7013309220       -0.4579482606
 H          6.2634358440        0.8650118314       -0.3397571757
 H          6.7632823817       -1.5232193009       -0.0091785853
 H          4.9394915999       -3.1194329881        0.4397575046
 H          2.6065933290       -2.3326087733        0.5541973082
 H         -2.9855835713       -0.2695381816       -2.4487782665
 H         -0.7980914994       -2.0633978480       -1.4868842568
