  20
        -26.68561540
 C         -1.2984121634        1.9222856820       -0.0572266167
 C         -0.6054225952        0.8278694122       -0.8660865490
 N         -0.1287852618       -0.2515709937       -0.0174238246
 N         -0.8970970584       -1.1642715464        0.4528684673
 O         -2.1177961064       -1.1027380649        0.1681373322
 C          1.2841452407       -0.3971778662        0.3040084082
 C          1.8279376638        0.8520426430        0.9900144705
 C          2.0879742248       -0.7467753563       -0.9479727630
 H         -2.1388781498        1.5018281052        0.4915886609
 H         -0.6117811206        2.3802649342        0.6481140309
 H         -1.6753850809        2.6843389676       -0.7324108473
 H         -1.3304420687        0.3852847214       -1.5582964092
 H          0.2374988187        1.2292284423       -1.4232375889
 H          1.3203817593       -1.2420388242        0.9981666056
 H          1.8240992253        1.7040674093        0.3163174187
 H          1.2382791596        1.0901933375        1.8710650535
 H          2.8512439640        0.6669310827        1.3017998349
 H          1.6456643647       -1.5995506238       -1.4560434572
 H          2.1316548148        0.0903498195       -1.6390559036
 H          3.1020685669       -1.0044085787       -0.6592734609
