  28
        -44.61296412
 C          0.5838101748       -2.5834817771        0.6737638592
 C          0.8953859340       -1.0946064248        0.5435240352
 C          1.8597596083       -0.8793560788       -0.6428900546
 N          2.7134122312        0.2732900488       -0.4569444881
 N          3.9732945511        0.2167419814       -0.2172324236
 O          4.5152610668       -0.9110657872       -0.1538010880
 C          2.1325106286        1.5928834001       -0.4871757826
 C          1.1555474305        1.8217041157        0.6762508144
 C         -0.1816437975        1.1768908314        0.4404444822
 C         -1.2974594557        1.9837270680        0.2611119911
 C         -2.5485513766        1.4477183930        0.0148383069
 C         -2.6699230966        0.0735112449       -0.0553095875
 Cl        -4.2313126827       -0.6402506440       -0.3719727326
 C         -1.5754353424       -0.7541036916        0.1191224242
 C         -0.3213143957       -0.2141685049        0.3726052455
 H         -0.1251176216       -2.7561036606        1.4788013761
 H          0.1808801164       -2.9827359414       -0.2532475722
 H          1.4986674340       -3.1244515512        0.9056192079
 H          1.4168839649       -0.7876511414        1.4576868861
 H          2.5322141676       -1.7385770563       -0.7318974108
 H          1.2966494017       -0.7604838935       -1.5706139718
 H          2.9620048738        2.2970273285       -0.4198481471
 H          1.6103988788        1.7297503794       -1.4371890302
 H          1.6074933173        1.4466330411        1.5964216078
 H          1.0151895036        2.8957954604        0.7870975213
 H         -1.1903822608        3.0559308292        0.3146151375
 H         -3.4081074094        2.0826207545       -0.1224748956
 H         -1.7166184787       -1.8187722637        0.0539261145
