  46
        -69.16334613
 C         -2.2318458581       -2.8894744912       -0.9423127459
 C         -2.7007131191       -2.0768158919        0.2593319563
 O         -1.9263196281       -0.8924824910        0.4719483656
 C         -2.1903697965        0.1663737695       -0.4054965972
 C         -1.0076677658        1.1602521169       -0.3083546114
 N          0.1399956286        0.6790286967       -1.0307900942
 N          0.4598286767        1.3037124253       -2.1071992398
 O          1.4652604192        0.8990948139       -2.7309929261
 C          0.8882954591       -0.4732995125       -0.5043375949
 O          1.0421088211       -1.4652518492       -1.4526689389
 C          2.2303327237        0.0608764585        0.0618054422
 O          3.0719729639       -0.9384191218        0.5445477409
 C          2.5845550686       -1.7239708358        1.6443648246
 C          2.1656824277       -3.1205694895        1.2048731895
 O          1.8817547402        0.9951386032        1.0426161394
 C          2.9498837167        1.8549404792        1.4606030348
 C          3.1166462223        3.0605137052        0.5445842627
 O         -3.4239771306        0.7694994073       -0.1550598261
 C         -3.6005912800        1.3215111459        1.1565528880
 C         -5.0877619180        1.5412528819        1.3790284592
 H         -1.1521411366       -3.0165758186       -0.9114303923
 H         -2.7070856848       -3.8647212841       -0.9203230185
 H         -2.4915907171       -2.3999909533       -1.8776574893
 H         -3.7564802740       -1.8030775247        0.1551925198
 H         -2.5629894939       -2.6459727258        1.1802274654
 H         -2.2744226758       -0.1871063565       -1.4436048501
 H         -1.3076708693        2.1062482152       -0.7591766147
 H         -0.7267359406        1.2930906232        0.7383699244
 H          0.2889697721       -0.8903043791        0.3085962930
 H          2.8097825522        0.5198681548       -0.7537609817
 H          3.4231144331       -1.7874809367        2.3438496499
 H          1.7613531789       -1.1908684510        2.1288894232
 H          1.8134969371       -3.6777698683        2.0673082219
 H          1.3768556211       -3.0716196322        0.4596479499
 H          3.0153860826       -3.6361950768        0.7666668534
 H          2.6650851413        2.1737832179        2.4645762212
 H          3.8751925635        1.2715993449        1.5139759793
 H          3.9245499599        3.6832283835        0.9147427062
 H          3.3543750091        2.7486771850       -0.4704644689
 H          2.1984104709        3.6406354491        0.5200640726
 H         -3.1925590908        0.6246885942        1.8968229770
 H         -3.0597553943        2.2725585134        1.2230829543
 H         -5.2467693714        1.9868519611        2.3556462165
 H         -5.4786080493        2.2032564639        0.6121606901
 H         -5.6201867532        0.5961276832        1.3244428744
 H          1.5903204414       -1.1360712251       -2.1882545508
