  17
        -23.51845031
 C         -1.2880696035       -1.9023918157        0.2931806641
 C         -0.5331911201       -0.9646945689       -0.6450074273
 N          0.0845905625        0.1279797439        0.0872363907
 C          1.4060504076       -0.0564638266        0.6472550611
 C          2.4965460322        0.0505343075       -0.4158337091
 N         -0.4603518407        1.2715528119        0.2784535077
 O         -1.6038957747        1.4661482986       -0.1998796256
 H         -1.7472496709       -2.6988974414       -0.2839914525
 H         -0.6162807938       -2.3410293012        1.0260351593
 H         -2.0713606103       -1.3574810437        0.8157512626
 H          0.2469730199       -1.5016721847       -1.1827744314
 H         -1.2308784145       -0.5129635613       -1.3569370725
 H          1.5446399998        0.7227214824        1.3967616887
 H          1.4414900845       -1.0360043728        1.1271197755
 H          2.4470211966        1.0176959634       -0.9082197302
 H          3.4675990832       -0.0495976796        0.0582912899
 H          2.3975395631       -0.7286895006       -1.1662679498
