  24
        -33.91825555
 C         -1.4460585837       -1.0748722169       -1.0739127315
 N         -1.0519883120       -0.2758026800        0.0653926933
 N         -1.8304864556        0.5782934879        0.6263683650
 O         -2.9616628346        0.7370490218        0.1108627594
 C          0.2849049374       -0.4116656931        0.6529162035
 O          0.6525004065       -1.7476296149        0.6904028598
 C          1.3670575808        0.4072118903       -0.1062768151
 C          1.6339823867       -0.1674576551       -1.4977316804
 C          0.9269659680        1.8668886911       -0.2081615515
 C          2.6479557125        0.3155579168        0.7302997885
 H         -1.5413975798       -0.4415332138       -1.9571260761
 H         -0.7047879811       -1.8511204483       -1.2264643090
 H         -2.4294003415       -1.5023240756       -0.8672208251
 H          0.1880650075        0.0279673826        1.6553310207
 H          0.8006169422        0.0188871224       -2.1680652660
 H          2.5176103626        0.3035197609       -1.9197923299
 H          1.8110998963       -1.2372324021       -1.4326203862
 H          0.7442804654        2.2848124991        0.7786050334
 H          1.7049794685        2.4494005833       -0.6931792113
 H          0.0140435207        1.9688574248       -0.7909359542
 H          2.4897040993        0.7282545378        1.7234764374
 H          2.9570294646       -0.7214200989        0.8263604551
 H          3.4444350432        0.8744813248        0.2480482924
 H          0.1903153721       -2.2142274346        1.4001794029
