  45
        -77.19956584
 O         -5.3111911122        2.0110312171       -1.1380667098
 N         -5.2757428854        0.7577121421       -1.1425500307
 N         -4.5529002474        0.1722940152       -0.2647485349
 C         -4.4707830560       -1.2658567091       -0.2949517149
 C         -3.0224138840       -1.6740896616       -0.5560289552
 C         -2.0721031425       -1.0700097784        0.4905134258
 C         -0.6544674413       -1.4612087211        0.1442578861
 C         -0.0604425267       -1.0192643481       -1.0336328095
 C          1.2312685595       -1.3849063986       -1.3643228436
 C          1.9242782588       -2.2046500250       -0.4974418252
 F          3.2080191293       -2.5577656380       -0.8100620864
 C          1.3652914656       -2.6742144002        0.6736544466
 C          0.0704591524       -2.2971285916        0.9840025349
 C         -2.2510939921        0.4587286419        0.5500154284
 C         -1.4862162899        1.0968885358        1.7263466644
 O         -0.1522149677        0.6623646373        1.8982315193
 C          0.8367452989        1.0747251682        1.0604425723
 C          0.6813773280        1.9569500566        0.0007071494
 C          1.7513240916        2.2824466104       -0.8331897573
 C          2.9629038262        1.6998572676       -0.5692292156
 C          3.1293686869        0.8372885176        0.5149292147
 C          2.0925658030        0.5143665825        1.3464106420
 O          4.4302408023        0.4071125575        0.5632032485
 C          5.0754449174        0.9909401601       -0.5538792118
 O          4.1616500586        1.8252705602       -1.2387156349
 C         -3.7331244837        0.8155649872        0.7377459083
 H         -4.8061189597       -1.6556388019        0.6695123649
 H         -5.1295031175       -1.6252722235       -1.0845268048
 H         -2.9429175187       -2.7598678949       -0.5314535893
 H         -2.7320132099       -1.3370831356       -1.5511507509
 H         -2.3171563142       -1.4814767943        1.4737920208
 H         -0.5978472143       -0.3774483725       -1.7137566428
 H          1.6992510179       -1.0387954992       -2.2717354144
 H          1.9389833831       -3.3149658404        1.3232869587
 H         -0.3723720497       -2.6515000388        1.9013026394
 H         -1.9058134544        0.8878185929       -0.3933503157
 H         -1.5297790590        2.1889826040        1.6451349983
 H         -1.9639756914        0.8005603348        2.6640307014
 H         -0.2715760101        2.4145481575       -0.2023070222
 H          1.6269513237        2.9599283170       -1.6599841808
 H          2.2096389220       -0.1527951841        2.1812394900
 H          5.9310343462        1.5883547565       -0.2097808615
 H          5.4229852177        0.1940790566       -1.2291231661
 H         -3.8900096851        1.8938797302        0.6435920713
 H         -4.0759477305        0.4865023138        1.7222556961
