  18
        -33.13173938
 C         -2.4043814056       -1.6831848342        0.4433907607
 N         -1.8581801618       -0.3830468136        0.1135689011
 N         -2.7531018496        0.5087968397       -0.1614846565
 O         -2.3958285948        1.6539158524       -0.5067897590
 C         -0.4507822454       -0.2258959207        0.0785820816
 C          0.1345097284        0.9792761416        0.4619769110
 C          1.5084841071        1.1308405689        0.4191615255
 C          2.2802478455        0.0681816525       -0.0074120239
 F          3.6329715015        0.2135236583       -0.0534586642
 C          1.7264252918       -1.1408318383       -0.3855044198
 C          0.3533911718       -1.2858337816       -0.3399200785
 H         -3.4542871331       -1.5444910411        0.6866805760
 H         -2.3294787314       -2.3611532642       -0.4059437731
 H         -1.8710904018       -2.0997866315        1.2946781892
 H         -0.4784489521        1.8005459057        0.7950888004
 H          1.9752448074        2.0560343085        0.7134943416
 H          2.3639506837       -1.9466012672       -0.7097069488
 H         -0.0835946915       -2.2214698892       -0.6434230738
