  25
        -40.62170813
 O         -0.9858409101       -2.7899234638        0.0938845645
 N          0.0917544962       -2.1638101681        0.0263477216
 N          0.0436103259       -0.8651726728       -0.0134668079
 C         -1.1577136071       -0.0959332896        0.0170581691
 C         -2.1858269721       -0.3640940570       -0.8760707825
 C         -3.3541866306        0.3755004719       -0.8080553481
 C         -3.4952104696        1.3720330763        0.1427453286
 C         -2.4660644054        1.6326460392        1.0343287615
 C         -1.2957522165        0.8994341300        0.9784527319
 C          1.2841764851       -0.1911277871       -0.0521391693
 C          1.3733426000        1.0674919245       -0.6386411825
 C          2.5948533543        1.7149559844       -0.6820435254
 C          3.7248893974        1.1147668387       -0.1509754435
 C          3.6334764486       -0.1428608266        0.4247778881
 C          2.4177383812       -0.7987113737        0.4787033370
 H         -2.0710675874       -1.1428365907       -1.6144527669
 H         -4.1526748281        0.1688288515       -1.5030856429
 H         -4.4080582435        1.9444613698        0.1906622301
 H         -2.5752210518        2.4060698791        1.7779488975
 H         -0.4905353684        1.0880823852        1.6717705933
 H          0.4962359506        1.5289777417       -1.0647820777
 H          2.6616963395        2.6902272570       -1.1373988623
 H          4.6742974235        1.6249400300       -0.1861485588
 H          4.5102489417       -0.6141814541        0.8396486211
 H          2.3280098774       -1.7741842173        0.9278259996
