  39
        -67.61754752
 C         -4.3629369886        0.0660019645       -0.8316621723
 N         -3.6859867038        0.8099068868        0.2074380066
 N         -4.2064365661        1.8067876705        0.8277327752
 O         -5.3681542549        2.1559519537        0.5234961693
 C         -2.3085189618        0.4656217546        0.6696084693
 O         -2.3316818312        0.3335440435        2.0592355481
 C         -1.3639833411        1.5924770274        0.2313950950
 C         -1.0833003236        1.5261754292       -1.2618970266
 C         -0.3589083966        0.2175792749       -1.6098538431
 C          1.0879618117        0.3031853458       -1.1726026557
 C          2.0224513948        0.9183686363       -1.9986112906
 C          3.3418666335        1.0464707269       -1.6080330369
 C          3.7467767386        0.5577598895       -0.3759511028
 Cl         5.4033414577        0.7135899714        0.1190515508
 C          2.8218184513       -0.0590680078        0.4558204868
 Cl         3.3129182726       -0.6794381738        2.0019973358
 C          1.5006698975       -0.1853882469        0.0601263629
 C         -1.0318280001       -0.9791196439       -0.9886278001
 C         -0.7202760686       -2.2436914354       -1.4786776999
 C         -1.2654289008       -3.3825881784       -0.9186768792
 C         -2.1326000804       -3.2736846371        0.1566406674
 C         -2.4543842190       -2.0245617250        0.6503198417
 C         -1.9134673054       -0.8745386350        0.0838570726
 H         -4.7548002056       -0.8693704475       -0.4328664000
 H         -5.1941769818        0.6856702181       -1.1733306225
 H         -3.6779378109       -0.1464015838       -1.6471231772
 H         -1.8206903410        2.5473382995        0.4964875038
 H         -0.4316394399        1.4839724441        0.7876184482
 H         -2.0198337311        1.5880483478       -1.8173234884
 H         -0.4624448496        2.3727943292       -1.5540942366
 H         -0.3673879120        0.0959835721       -2.6971608867
 H          1.7191429183        1.3015846766       -2.9599931614
 H          4.0650016723        1.5210233061       -2.2503048758
 H          0.8041012271       -0.6771595378        0.7206367824
 H         -0.0337832038       -2.3262851258       -2.3075610897
 H         -1.0118173023       -4.3538071708       -1.3143211899
 H         -2.5565971990       -4.1569772649        0.6081776544
 H         -3.1169339648       -1.9232507795        1.4960777865
 H         -2.5108054457        1.1934978058        2.4666946891
