  41
        -73.20709016
 C         -2.3020587000        3.4583255682        1.4315266163
 N         -2.2956659132        2.9850697972        0.0736339909
 C         -3.4352865486        2.2189869155       -0.3974153272
 C         -3.4425366196        0.7787999424        0.1209705603
 C         -2.1505234679        0.0293205413       -0.2370808797
 O         -1.1511748584        0.5287619025        0.6520669342
 C          0.1495596521        0.2834380799        0.4074794150
 C          0.6306338898       -0.5524756904       -0.5986394235
 C          1.9913754723       -0.7199887899       -0.7638833587
 C          2.8830236635       -0.0599018810        0.0709564344
 C          4.3495923410       -0.2682271937       -0.1023768642
 F          4.7151240471       -0.4958311895       -1.3796627154
 F          5.0971050613        0.7705385879        0.3159501898
 F          4.8170320558       -1.3401655690        0.5918651745
 C          2.4109234903        0.7639085681        1.0895315829
 C          1.0559660667        0.9333440968        1.2528833661
 C         -2.3498476900       -1.4621184947       -0.0934763482
 C         -2.1574556163       -2.0827132585        1.1328710639
 C         -2.3632218489       -3.4448431513        1.2640642784
 C         -2.7709403102       -4.1940783955        0.1736469881
 C         -2.9702713985       -3.5778996159       -1.0509441143
 C         -2.7587118817       -2.2173990177       -1.1851189539
 N         -1.2589120324        3.2573293186       -0.6235104003
 O         -1.1989735092        2.8134843039       -1.7972489596
 H         -2.2867350164        2.6100449980        2.1149662064
 H         -1.4134392607        4.0640423601        1.5844432343
 H         -3.1958308413        4.0535344746        1.6129340779
 H         -4.3454696584        2.7304885753       -0.0814926450
 H         -3.3737936079        2.2177865922       -1.4908171775
 H         -3.5552456372        0.7601544978        1.2045697030
 H         -4.2872035766        0.2566382841       -0.3265919774
 H         -1.8671660386        0.2718833630       -1.2718347211
 H         -0.0435063396       -1.0812789094       -1.2513646896
 H          2.3629931241       -1.3619623708       -1.5472132417
 H          3.1073114417        1.2722380698        1.7371294121
 H          0.6705831500        1.5731939316        2.0287551982
 H         -1.8360277922       -1.4969419238        1.9808523322
 H         -2.2059747691       -3.9209111264        2.2197235003
 H         -2.9315052434       -5.2563607069        0.2759445489
 H         -3.2863606616       -4.1582663909       -1.9043173913
 H         -2.9076494588       -1.7371527143       -2.1417650222
