  90
       -145.33561990
 C         -6.1232576084        1.7197305207        2.1145791811
 C         -4.8666892077        2.3879203912        1.5681445595
 C         -5.0879971703        2.9269177138        0.1557613539
 C         -3.8342036919        3.5519122541       -0.4578928490
 C         -3.4392972666        4.8581434704        0.2325707457
 C         -2.3209865549        5.5964966783       -0.4938443222
 O         -1.0706205754        4.8913391254       -0.3589890766
 C         -0.6287515720        4.1967349516       -1.3871046036
 O         -1.1375816760        4.1040468062       -2.4730175885
 N          0.5748569067        3.5248077584       -1.1184615051
 C          1.3719741828        3.5360929245       -0.0356691926
 N          1.1424586815        4.2737340250        1.0092849814
 C          2.5404258818        2.6496330441       -0.0688764403
 C          2.9408630043        1.9829745483        1.0938171009
 C          3.9824747556        1.0817958650        1.0574228351
 C          4.6386527062        0.8328892532       -0.1466471098
 N          5.6380822027       -0.1682913602       -0.2130165023
 N          6.7784609350       -0.0994840009       -0.8413997948
 O          7.0811621802        0.9546591112       -1.4129756120
 C          5.4061646605       -1.4685952865        0.4251698198
 O          5.5829813587       -1.4142283427        1.8039723926
 C          4.0064870419       -1.9383362933        0.1430614721
 N          3.0753251730       -1.1979343784       -0.3958517378
 C          1.9523125786       -1.9772540983       -0.4095619552
 C          0.6598604760       -1.6596377471       -0.7980645241
 C         -0.3072032909       -2.6388283156       -0.6494429466
 C         -1.7136841211       -2.3403185075       -1.0262467501
 O         -2.3634565212       -3.0697698438       -1.7708258701
 N         -2.2093367619       -1.1598220613       -0.5701059576
 C         -3.5279473072       -0.7384371825       -1.0055751554
 C         -4.6161444033       -1.2173715356       -0.0272728777
 C         -4.5100022901       -2.7134086435        0.1545011422
 O         -3.6973293328       -3.2479971264        0.8832274736
 O         -5.4114432207       -3.3543812686       -0.5663907910
 C         -5.4001397583       -4.7903525636       -0.5956672516
 C         -4.8697969437       -5.2758794242       -1.9352210444
 C         -1.6470908094       -0.4570143984        0.5150158132
 C         -1.1872790515       -1.1292356612        1.6483517349
 C         -0.6444681376       -0.3834991866        2.6772700594
 C         -0.5982363196        0.9996883462        2.5569850512
 C         -1.1249791616        1.5677691534        1.4125348654
 N         -1.6325915696        0.8628831556        0.4110146770
 C          0.0168028272       -3.9189715541       -0.1745344103
 C          1.2931468100       -4.2411161381        0.2331799102
 C          2.2608276145       -3.2494643676        0.1319000972
 N          3.5863665651       -3.1902137505        0.4755391145
 C          4.3763649668       -4.2267893431        1.0856606633
 C          4.2986717768        1.5477158643       -1.2916352038
 C          3.2464237103        2.4380485447       -1.2548045410
 H         -6.9383989264        2.4371633730        2.1798747081
 H         -6.4428812236        0.9052607286        1.4680369970
 H         -5.9448848550        1.3164733200        3.1089638256
 H         -4.5884669045        3.2016426029        2.2381907361
 H         -4.0467050879        1.6667751096        1.5532559941
 H         -5.4194195787        2.1046373632       -0.4824095239
 H         -5.8915877696        3.6666573440        0.1751023923
 H         -3.0186557653        2.8280472559       -0.4038010634
 H         -4.0273766626        3.7558350611       -1.5138813725
 H         -4.3024946718        5.5239164660        0.2601304039
 H         -3.1303639539        4.6618332292        1.2588442320
 H         -2.5521051932        5.7074063899       -1.5556121328
 H         -2.1491131832        6.5761471824       -0.0460417025
 H          0.3284700078        4.8792699898        1.0478119456
 H          2.4021566669        2.1185266660        2.0174090317
 H          4.2655015988        0.5387065760        1.9440006593
 H          6.1297583092       -2.1494119863       -0.0489069413
 H          0.4269499317       -0.6874801410       -1.1985193630
 H         -3.5326833558        0.3505171530       -1.0588667273
 H         -3.7021693881       -1.1704327795       -1.9928561407
 H         -4.4680635784       -0.7429224617        0.9435252771
 H         -5.5970867528       -0.9744204740       -0.4295032071
 H         -4.7765164744       -5.1490016742        0.2289355097
 H         -6.4367938948       -5.0964420837       -0.4421661790
 H         -3.8743801204       -4.8696984441       -2.1045475568
 H         -4.8210749543       -6.3597726525       -1.9358434511
 H         -5.5213990378       -4.9435187333       -2.7381196671
 H         -1.2946333875       -2.1993564147        1.7165143823
 H         -0.2851683084       -0.8755975884        3.5674635731
 H         -0.1981385656        1.6091686320        3.3491445326
 H         -1.1710508855        2.6384212184        1.2799293589
 H         -0.7771445934       -4.6478152173       -0.1067550599
 H          1.5147094461       -5.2238054472        0.6170625989
 H          3.7251704351       -5.0526656465        1.3574369291
 H          5.1358561110       -4.5865128700        0.3901559632
 H          4.8601370882       -3.8394980446        1.9813855026
 H          4.8321611105        1.3816287870       -2.2132376582
 H          3.0014612576        2.9847661465       -2.1513970712
 H          0.8530876617        2.9192677777       -1.8866149038
 H          1.8023359094        4.2827523149        1.7770087209
 H          6.5209161037       -1.3219649429        2.0313601121
