  14
        -20.35293747
 C         -2.2710951444       -0.2227060521        0.5279711935
 C         -1.2262765552       -0.4639063937       -0.5573799320
 N          0.0605078755        0.0931642314       -0.2035387350
 C          0.1801568151        1.5263029862       -0.0526779742
 N          1.0191241152       -0.7402769235       -0.0460931838
 O          2.1473514099       -0.2894477483        0.2716642111
 H         -1.9280097834       -0.6217158054        1.4786731451
 H         -2.4805186516        0.8365134771        0.6432261828
 H         -3.1916757970       -0.7276655853        0.2533422413
 H         -1.0724401781       -1.5329996112       -0.7057205421
 H         -1.5533176742       -0.0117175380       -1.4971687174
 H         -0.3598181269        2.0218727618       -0.8552827909
 H         -0.2155734028        1.8401951286        0.9126436238
 H          1.2410320580        1.7766858378       -0.0948080829
