  26
        -47.39905671
 C         -3.6396514224        1.4140193452       -0.4226012230
 N         -2.5579173510        0.4587105252       -0.5138384724
 C         -1.5766405681        0.4044102785        0.3981588103
 O         -1.5895457235        1.0063142641        1.4696791525
 C         -0.4926145792       -0.5691360540        0.0963926789
 C          0.8763632580       -0.3757511425        0.0811847857
 N          1.5836773525        0.8242042776        0.1296516128
 C          2.9880971122        0.7651645875        0.5398136924
 O          3.7736720869        0.1139457328       -0.3896792024
 N          1.1375781636        1.9743624733       -0.2678425741
 O         -0.0337923297        2.0287461888       -0.6921606202
 N          1.5179966030       -1.5655710618       -0.0738796628
 C          0.5656592340       -2.4620520666       -0.1362976691
 N         -0.6638984896       -1.9196066156       -0.0395807771
 C         -1.9154330456       -2.6299753788       -0.0655414747
 H         -3.4483617718        2.2769579964       -1.0619040579
 H         -4.5700712182        0.9329848297       -0.7163624040
 H         -3.7027613721        1.7508429704        0.6102980560
 H          3.3362570599        1.7976209975        0.6070107150
 H          3.0185268607        0.2765341121        1.5222807247
 H          0.7422645447       -3.5112766184       -0.2524726792
 H         -2.6313136991       -2.1295260406        0.5833318258
 H         -2.3138789123       -2.6633681613       -1.0800087951
 H         -1.7520070477       -3.6460824924        0.2858956951
 H         -2.3852668547        0.0669053349       -1.4277517032
 H          3.4976195242       -0.8197555740       -0.4412280423
