  42
        -66.52854666
 C         -1.6129752950        3.0826730512       -0.8034866567
 C         -0.9443506779        1.7092637317       -0.7932547661
 C         -0.2069622528        1.4302611295       -2.0942550391
 N         -1.9584525723        0.6856220996       -0.5404054364
 N         -2.4555012247        0.1173162268       -1.5672104351
 O         -3.3419372451       -0.7551062933       -1.4137588523
 C         -2.4162381809        0.5173304177        0.8641068034
 O         -3.6897948657        1.0412410540        1.0149176637
 C         -2.3592694715       -0.9566294518        1.3579170851
 O         -3.5640016334       -1.6178024762        1.0998190131
 C         -1.1490516896       -1.6972606549        0.7717724157
 O         -0.0107866481       -0.9029672940        1.0120838722
 C          1.1369648967       -1.1593708263        0.3061084503
 C          1.3208934853       -2.2323330707       -0.5284126665
 C          2.5233074643       -2.3766744806       -1.2394654806
 C          3.5267657578       -1.4604309272       -1.1181332725
 C          3.3798729408       -0.3546553892       -0.2532379018
 C          4.3987445337        0.6072131535       -0.0910266262
 C          4.2374202286        1.6660900921        0.7586145201
 C          3.0515189013        1.8078759604        1.4940048284
 C          2.0435988941        0.8931993325        1.3592714541
 C          2.1767087986       -0.2000668318        0.4799830875
 H         -2.1980052414        3.2338682647        0.1002496368
 H         -0.8538401437        3.8552279737       -0.8667559710
 H         -2.2752896465        3.1643637170       -1.6611740437
 H         -0.2350207491        1.6481584096        0.0378216520
 H          0.2355494339        0.4372911528       -2.0754677942
 H         -0.8813416593        1.4968653440       -2.9414797020
 H          0.5883933993        2.1592767135       -2.2116442894
 H         -1.7278393731        1.1187259191        1.4634220223
 H         -2.2687580586       -0.9235124354        2.4480585728
 H         -1.0580750358       -2.6778729429        1.2549077024
 H         -1.3012943713       -1.8553439533       -0.3036957901
 H          0.5546460204       -2.9809172994       -0.6523721728
 H          2.6358151544       -3.2299919961       -1.8905955821
 H          4.4449415511       -1.5703565723       -1.6742119344
 H          5.3134507444        0.4868446151       -0.6522105721
 H          5.0238272298        2.3963118921        0.8746840477
 H          2.9415171605        2.6415996294        2.1704388713
 H          1.1355323620        0.9807969655        1.9359298477
 H         -4.3397342272        0.3130382488        1.0089985390
 H         -3.7160572215       -1.5918698729        0.1246288352
