  46
        -86.35860067
 C          4.5269500331       -1.4102859023       -1.9707426848
 C          4.6515324561       -1.7914264661       -0.5006585364
 C          3.6165478237       -1.0866431112        0.3813113551
 C          2.2437957760       -1.7492245213        0.2670415215
 O          2.2194778741       -3.0476870684        0.7512868276
 N          1.2365503021       -0.9216768883        0.9638766334
 N          1.5974089345       -0.4292185217        2.1108669580
 O          0.7542902665        0.1823671837        2.7819779908
 C         -0.0931736396       -0.8643082933        0.4682919997
 C         -0.7803947419       -2.0328980191        0.1667231292
 C         -2.1149468805       -1.9980706624       -0.2084931014
 C         -2.8631001308       -3.3029896123       -0.5347174197
 O         -4.0774764819       -3.1957525037       -0.7898231445
 O         -2.1898109404       -4.3496020305       -0.5143378978
 C         -2.7766979022       -0.7779638196       -0.2728845889
 C         -2.0869992271        0.3802064081       -0.0021829241
 S         -2.8385282001        1.9843036330       -0.2057039628
 N         -2.7200583664        2.8191290347        1.2059911115
 O         -2.0856634629        2.7096356541       -1.2056575474
 O         -4.2482120134        1.8170502088       -0.4753011446
 C         -0.7464872421        0.3721145801        0.3570183156
 O         -0.1515368211        1.5682868675        0.6170903486
 C          1.0644779734        1.8397469074       -0.0050091322
 C          1.9677049623        2.6441862501        0.6759080348
 C          3.1648447461        2.9829459886        0.0704134639
 C          3.4568855354        2.5276659526       -1.2049545715
 C          2.5455707636        1.7321801041       -1.8800555084
 C          1.3472230505        1.3800658897       -1.2837319253
 H          5.2883533878       -1.9198729844       -2.5546819699
 H          3.5537859860       -1.6904471791       -2.3664095668
 H          4.6521227928       -0.3377692049       -2.0937227867
 H          4.5344361232       -2.8708342889       -0.3925485421
 H          5.6466584024       -1.5197010549       -0.1490300501
 H          3.9227881513       -1.1242025206        1.4264444711
 H          3.5279684071       -0.0402395694        0.0909323390
 H          1.9113859662       -1.8084769465       -0.7738767059
 H         -0.2905452561       -2.9939262449        0.2347683464
 H         -3.8189361923       -0.7400532424       -0.5488312785
 H         -1.7578258104        2.9314666616        1.4897069266
 H          1.7197122162        2.9811766262        1.6693690482
 H          3.8686845736        3.6031539714        0.6012609197
 H          4.3900099880        2.7947692088       -1.6739577014
 H          2.7571710580        1.3821306963       -2.8779161081
 H          0.6196075343        0.7732417995       -1.8036205019
 H          2.6569616728       -3.0889544649        1.6169752339
 H         -3.2892454183        2.4046238752        1.9274615484
