  43
        -64.79812616
 C         -3.0981917166        0.2089975380       -0.9382616379
 N         -2.6963537688       -1.1214388715       -0.5375761482
 N         -2.1937449272       -2.0056463694       -1.3214735332
 O         -2.0079634680       -1.6800539903       -2.5149742943
 C         -2.8000712291       -1.4950338374        0.8735965755
 O         -4.0739185494       -1.2304312486        1.3568607431
 C         -1.7781343786       -0.6905265755        1.6920734929
 C         -0.3790374941       -1.0274775327        1.2879512795
 C          0.5165496047       -0.1798722282        0.7769294418
 C          1.8892739445       -0.6295032139        0.4655991470
 C          2.5247101904       -1.4088688911        1.4367533460
 C          3.8141233581       -1.8690793189        1.2737358594
 C          4.5063774551       -1.5506493837        0.1171162664
 C          3.8903650621       -0.7801551505       -0.8474558238
 C          2.5880647599       -0.3046911072       -0.7004740793
 C          2.0618753659        0.5161785853       -1.8516844712
 C          0.5610669288        0.8071885721       -1.8663408007
 C          0.2081387899        1.7405684348       -0.7484993807
 C         -0.0865705946        3.0774301947       -0.9701137885
 C         -0.3662497369        3.9226902675        0.0907702675
 C         -0.3470725212        3.4354879428        1.3865842980
 C         -0.0583100817        2.1017884904        1.6188469368
 C          0.2175570007        1.2503874550        0.5566199196
 H         -2.2504984694        0.8940722389       -0.8884688461
 H         -3.4451204219        0.1584522120       -1.9706815791
 H         -3.8896071756        0.5405958727       -0.2719238507
 H         -2.5452645497       -2.5624395849        0.9092800406
 H         -1.9871168747        0.3718261131        1.5764366265
 H         -1.9362602968       -0.9600977323        2.7383904591
 H         -0.1123155225       -2.0706919411        1.3944066428
 H          1.9894722516       -1.6363002952        2.3464268591
 H          4.2783367672       -2.4669564793        2.0432380697
 H          5.5171365738       -1.8995752492       -0.0310209622
 H          4.4283895717       -0.5335694845       -1.7522087895
 H          2.5996993564        1.4709048842       -1.8587316737
 H          2.3213193389       -0.0056515958       -2.7769949888
 H          0.3019487461        1.2583525566       -2.8263345092
 H          0.0104880895       -0.1331207547       -1.7810875449
 H         -0.1000371176        3.4569078307       -1.9818474625
 H         -0.5950998408        4.9611834202       -0.0949828694
 H         -0.5578287996        4.0931230998        2.2161088181
 H         -0.0347089017        1.7155238390        2.6268587126
 H         -4.7090163065       -1.8989142511        1.0618437569
