  12
        -21.25205049
 C         -0.1999723126       -1.5391452207       -0.0228620732
 N         -0.0886038208       -0.1068194411       -0.1939441763
 C          1.2184454285        0.4340923560       -0.5403722265
 O          2.1539167258        0.1954654578        0.4569792132
 N         -1.0439482205        0.7399915225       -0.0486325215
 O         -2.1774737314        0.2979551698        0.2358595717
 H         -1.0801746835       -1.7414465488        0.5872770510
 H         -0.3183364852       -2.0204400773       -0.9933975106
 H          0.7031546672       -1.8995445962        0.4636594966
 H          1.5807047467       -0.0867932624       -1.4321305563
 H          1.0760824107        1.4982726835       -0.7516455270
 H          2.0146034210        0.7868596225        1.2110542546
