  41
        -73.20647684
 C         -1.9444071001       -3.5341566988        1.2022370837
 N         -2.1156905328       -3.0303049901       -0.1401022993
 C         -3.3527573242       -2.3674709789       -0.4807207439
 C         -3.4345783372       -0.9557144459        0.1144369885
 C         -2.1972228905       -0.1163884081       -0.2358599138
 O         -1.1706499439       -0.5399992812        0.6651207279
 C          0.1147994394       -0.2300296984        0.4160022614
 C          1.0548096487       -0.8071983915        1.2773815619
 C          2.3987102450       -0.5780545520        1.1013313112
 C          2.8269306223        0.2381359307        0.0571235594
 C          4.2846476376        0.4985190330       -0.1176177654
 F          4.6241369650        0.8783347388       -1.3634158052
 F          4.7450407957        1.4900521856        0.6914987542
 F          5.0596794723       -0.5676125014        0.1678039519
 C          1.9017454539        0.8318274626       -0.7900805324
 C          0.5514134322        0.6016107946       -0.6137735327
 C         -2.4964228834        1.3598958968       -0.1030888984
 C         -2.9521013731        2.0774482498       -1.2019592020
 C         -3.2533885458        3.4219488325       -1.0795446007
 C         -3.0976231893        4.0606096137        0.1398676492
 C         -2.6435817569        3.3491731512        1.2372601075
 C         -2.3480428051        2.0024690338        1.1179721825
 N         -1.2223315650       -3.0488628854       -1.0583367662
 O         -0.1008434464       -3.5443838157       -0.7905039340
 H         -1.0086068162       -4.0931158596        1.2294904105
 H         -1.8880050114       -2.7036385864        1.9043271665
 H         -2.7785938454       -4.1838382873        1.4574333134
 H         -3.3899880609       -2.3084362939       -1.5692780695
 H         -4.1879626586       -2.9673611801       -0.1163241948
 H         -4.3216342411       -0.4652980800       -0.2825152641
 H         -3.5170736895       -0.9967209221        1.1997851502
 H         -1.8874079015       -0.3462528813       -1.2646336762
 H          0.7067772858       -1.4438730308        2.0737214138
 H          3.1219139098       -1.0341653990        1.7586796467
 H          2.2384527181        1.4699712838       -1.5918350463
 H         -0.1499642290        1.0812201227       -1.2755417525
 H         -3.0683542632        1.5817052428       -2.1545567261
 H         -3.6057822931        3.9735226277       -1.9377456332
 H         -3.3283436129        5.1107463387        0.2335715591
 H         -2.5200664253        3.8426418458        2.1891968347
 H         -1.9906120637        1.4467476083        1.9719051692
