  19
        -32.96720318
 O          1.2833313127        2.2182241013       -0.5944683668
 N          1.8517679509        1.2230243625       -0.1106318726
 N          1.1436667066        0.1900745107        0.2317478451
 C          1.9469488539       -0.9310036908        0.7270508994
 O          2.2134479630       -1.8765979988       -0.2523061914
 C         -0.2636085198        0.0346592932        0.1233291457
 C         -1.1151788510        1.0948152836        0.4164629008
 C         -2.4835629315        0.9206897402        0.3082244220
 C         -3.0052729056       -0.2995500566       -0.0868911483
 C         -2.1536185556       -1.3548461571       -0.3728196441
 C         -0.7845692270       -1.1954057563       -0.2700720807
 H          2.8605488195       -0.4914958043        1.1396100761
 H          1.3762480260       -1.4372754362        1.5092301452
 H         -0.7122781974        2.0457690001        0.7275971278
 H         -3.1404791883        1.7450297865        0.5376182877
 H         -4.0730553526       -0.4272150651       -0.1716450236
 H         -2.5554637400       -2.3073353200       -0.6805880404
 H         -0.1204252305       -2.0125497967       -0.5017102133
 H          2.8807375821       -1.5520877334       -0.8745324048
