  51
        -87.60290733
 C          1.1183255572        3.0730872005       -0.4160836848
 O          2.0774102759        2.1664038781        0.1378419110
 C          2.4691725109        1.1577100029       -0.6125833728
 O          2.0773713677        0.9410847987       -1.7364110678
 C          3.5218690327        0.3056021955        0.1000872709
 C          4.9153679643        0.6077055152       -0.4867452821
 C          5.9792282124       -0.2029870212        0.2467054895
 C          5.2080856679        2.1021657776       -0.3756115407
 N          3.1420046058       -1.0820831310       -0.0552291290
 N          3.4789998497       -1.6843334726       -1.1371514868
 O          3.0359430377       -2.8340179084       -1.3348170044
 C          2.1980571544       -1.6231780195        0.9573296037
 O          2.7345956413       -1.4476574919        2.2212890770
 C          0.8830124544       -0.8957703681        0.8015029476
 C          0.4370871763        0.0001143537        1.7612326103
 C         -0.7643144471        0.6599398726        1.5857699214
 C         -1.5361730013        0.4401467321        0.4496222945
 C         -2.8119198908        1.1448186587        0.2498737148
 C         -2.8727821462        2.5282467444        0.3846971244
 C         -4.0440002667        3.2183540097        0.1319713179
 C         -5.1786315766        2.5288159005       -0.2633643402
 C         -5.1407736197        1.1520448685       -0.3782943098
 C         -3.9699964592        0.4469947776       -0.1157719037
 C         -4.0028583417       -1.0070702715       -0.1726281721
 N         -4.6905010319       -1.7100836613       -1.0871832362
 N         -4.4954735559       -2.9803478415       -0.7502032655
 N         -3.7466755095       -3.0473395849        0.3148001064
 N         -3.4105932021       -1.8265679820        0.7113597774
 C         -1.0656419817       -0.4406981488       -0.5221241135
 C          0.1260718467       -1.1102888286       -0.3447330959
 H          1.4909121251        3.4820828492       -1.3556376435
 H          0.1802176321        2.5494338368       -0.6051066599
 H          0.9917499902        3.8499423075        0.3308519736
 H          3.4943423357        0.5328136515        1.1697687637
 H          4.8949343999        0.3136409618       -1.5394075467
 H          5.7951287869       -1.2673578439        0.1330036857
 H          6.9574119589        0.0166535441       -0.1700157744
 H          5.9844302553        0.0481641208        1.3037855822
 H          4.5265047855        2.6788148182       -0.9955468197
 H          5.1061587104        2.4341054255        0.6541173989
 H          6.2220749293        2.3004756658       -0.7096339227
 H          2.0672842865       -2.6793968063        0.6823827092
 H          1.0288103579        0.1601671518        2.6481282963
 H         -1.1233639296        1.3375640219        2.3447639379
 H         -1.9805115812        3.0634669637        0.6730706197
 H         -4.0704115502        4.2917556844        0.2359017283
 H         -6.0954183477        3.0576764889       -0.4743229436
 H         -6.0178116846        0.5911373134       -0.6689988653
 H         -1.6454734798       -0.6057509978       -1.4208337879
 H          0.4726385365       -1.8018713503       -1.1015127050
 H          3.2656062517       -2.2100999115        2.4912781004
