  15
        -24.42283107
 C         -1.0254837696       -1.3338258658        0.9575478821
 C         -0.7129283401       -0.4928834681       -0.2762368216
 O         -1.8213729127        0.1202231352       -0.8339748532
 N          0.3195218330        0.5079746010        0.0644388228
 C         -0.0794933264        1.8292140152        0.4780985947
 N          1.5762763279        0.2730020317       -0.0091843805
 O          1.9354250073       -0.8774925120       -0.3560415182
 H         -1.7644316519       -2.0874270980        0.7015689431
 H         -0.1205722860       -1.8323971698        1.2955951054
 H         -1.4074495616       -0.7045875437        1.7581096919
 H         -0.2574712437       -1.1190832235       -1.0568290955
 H         -0.6909363383        2.2863631607       -0.2992013831
 H         -0.6467392727        1.7705602262        1.4066236795
 H          0.8225374715        2.4129288439        0.6346903036
 H         -2.4276458851        0.4114759754       -0.1344925839
