  41
        -64.55882860
 C         -3.8731419521        0.6400737615        2.0066948754
 C         -3.2862442961       -0.6831228764        1.5280634396
 C         -2.8080255979       -0.6195654951        0.0723491066
 C         -2.2124817301       -1.9696292927       -0.3594592957
 O         -1.7603702292       -1.9819621242       -1.6934306201
 N         -1.8689031117        0.4788369767       -0.1276311320
 C         -0.5567371655        0.4481168247        0.4650633288
 C          0.5049010190       -0.0102006436       -0.5672733330
 O          0.6898584634        0.9001033596       -1.5751625838
 N          1.7610375452       -0.3078202960        0.1610798711
 N          1.8677166044       -1.3064895428        0.9541524815
 O          0.8557518600       -2.0239446423        1.1270965337
 C          2.9416846562        0.5147634742       -0.0576288111
 C          4.2278347725       -0.2747478091        0.1884360195
 C          4.3845959004       -1.4372589821       -0.7845639655
 C          2.8781220378        1.7594965247        0.8422317059
 O          1.7626360629        2.5500196786        0.4790095487
 N         -2.1112841879        1.5124278325       -0.8551072283
 O         -3.2108487789        1.5831240709       -1.4435974681
 H         -3.1130035573        1.4168075582        2.0386258535
 H         -4.6657929338        0.9695126201        1.3379162637
 H         -4.2878686882        0.5250447423        3.0037543637
 H         -2.4589109683       -0.9818951170        2.1736255724
 H         -4.0481746066       -1.4607747411        1.5881708827
 H         -3.6569684387       -0.3683274576       -0.5789036180
 H         -1.3413822252       -2.2184675786        0.2531626916
 H         -2.9722597685       -2.7434483754       -0.2000359431
 H         -0.2886470116        1.4579610875        0.7829075005
 H         -0.5634120938       -0.2336014563        1.3136903726
 H          0.1911735450       -0.9534877256       -1.0349890919
 H          2.8997178704        0.8345161441       -1.1041030302
 H          5.0663552925        0.4102601334        0.0654184056
 H          4.2312373276       -0.6496957155        1.2106718607
 H          4.3603910722       -1.0860004239       -1.8131720088
 H          5.3313127983       -1.9405000238       -0.6126158500
 H          3.5872922065       -2.1641385859       -0.6486597253
 H          2.7960789759        1.4398176866        1.8888160174
 H          3.8078638035        2.3192792528        0.7098017041
 H         -2.5106965733       -1.8937506823       -2.2975451170
 H          0.8305821735        1.7839984445       -1.1837749574
 H          1.8642147468        3.4392326184        0.8427636120
