  32
        -44.99055703
 O         -4.1431031777        0.4078146173        0.0225796994
 N         -3.3709680087       -0.5401411570        0.2504279439
 N         -2.1057554679       -0.3085174696        0.2235759187
 C         -1.2003190926       -1.4018840120        0.4901640672
 C         -0.2605687310       -1.5779712443       -0.6977737939
 N          0.4976333140       -0.3281097278       -0.9647442040
 C          1.5259951982        0.0061192465        0.0694655148
 C          2.4626056796       -1.1675484250        0.3730396293
 C          3.7271390703       -0.4686809370        0.8666598248
 C          3.8857488863        0.6846359119       -0.1218441026
 C          2.4478206782        1.1501835196       -0.4059592891
 C         -0.4563903163        0.7819917778       -1.2119219934
 C         -1.4657810591        0.9799065609       -0.0709514338
 O         -0.8225086878        1.4790676718        1.0582672363
 H         -0.6435919249       -1.1820735346        1.4039176845
 H         -1.7962302485       -2.3007880372        0.6424720242
 H          0.4308805299       -2.3940829031       -0.4981745270
 H         -0.8458576155       -1.8185790903       -1.5870758019
 H          1.0019904785        0.3154621534        0.9723547740
 H          2.0672159447       -1.8534654403        1.1177866137
 H          2.7016773028       -1.7179252143       -0.5376356852
 H          3.5760933540       -0.0832638570        1.8751707130
 H          4.5919348157       -1.1283442129        0.8806572228
 H          4.5062371238        1.4848644139        0.2751865260
 H          4.3587281747        0.3220798348       -1.0347521241
 H          2.3301538506        1.3566215947       -1.4685362699
 H          2.2276362998        2.0648499029        0.1403283101
 H          0.0901462561        1.7172545172       -1.3298950021
 H         -1.0134982517        0.5699485399       -2.1254153664
 H         -2.2670860548        1.6456913254       -0.4219939586
 H          1.0199492213       -0.4744965510       -1.8384338796
 H         -1.4244779259        1.9518520451        1.6468430116
