  26
        -43.37885528
 C          2.5892322012       -0.9409492122        0.9321751892
 N          1.9731720504       -0.5206833983       -0.3064477726
 C          2.0344873960        0.8729121490       -0.6657179288
 C          0.9665399518        1.7128891601        0.0784304484
 O          1.3646676030        1.8272405414        1.4272901660
 C         -0.3925487674        1.0740692823       -0.1041513040
 C         -1.1334564076        1.3386548071       -1.2496757301
 C         -2.3474256193        0.7082521695       -1.4436565626
 C         -2.8354161511       -0.1855214618       -0.5065661448
 C         -2.1010025671       -0.4498382464        0.6425562388
 O         -2.5271998593       -1.3118849925        1.6031751864
 C         -0.8788952483        0.1850919312        0.8383715342
 N          1.2894162495       -1.2728841339       -1.0869785815
 O          1.1526869933       -2.4802736309       -0.7733779397
 H          2.1672591758       -1.9081926651        1.2063655290
 H          3.6651511855       -1.0440679457        0.7921682726
 H          2.3863026964       -0.1965248391        1.6980094930
 H          3.0210330514        1.2603902524       -0.4089492351
 H          1.8524000347        0.9488817721       -1.7368362555
 H          0.9658330275        2.7064459031       -0.3941705838
 H         -0.7571540513        2.0311413616       -1.9861561609
 H         -2.9226060321        0.9089674311       -2.3342519547
 H         -3.7817291745       -0.6800639918       -0.6699080184
 H         -0.3193159628       -0.0379639404        1.7337230576
 H          0.7539205750        2.4097621328        1.8967579075
 H         -3.3748917124       -1.7095814212        1.3540449802
