  23
        -29.85088413
 C         -1.5865601826       -1.6151327199        0.0970584291
 N         -1.0104872103       -0.3611980458       -0.3403239654
 C          0.3127694554       -0.3685259311       -0.9230858896
 C          1.4357234890        0.0833492797        0.0433005862
 C          2.7687073369       -0.1407583733       -0.6756887307
 C          1.2696793592        1.5667077710        0.3694461820
 C          1.4111915638       -0.7338536191        1.3358510037
 N         -1.5973040224        0.7740306310       -0.2662627103
 O         -2.7381985831        0.8223325781        0.2602513393
 H         -2.5311222052       -1.3905866416        0.5937835622
 H         -1.7739909717       -2.2513919055       -0.7672375733
 H         -0.9146551408       -2.1197954041        0.7859046549
 H          0.5159775605       -1.3818597111       -1.2690927839
 H          0.3085941742        0.3124129920       -1.7757971133
 H          2.9258135204       -1.1969953634       -0.8782977952
 H          2.7927275745        0.4003784547       -1.6177512638
 H          3.5883148593        0.2143373704       -0.0572540187
 H          2.0181398068        1.8805896012        1.0921824224
 H          1.3792814498        2.1716683315       -0.5265714910
 H          0.2847746489        1.7623023585        0.7882356127
 H          0.5044466070       -0.5355423447        1.9028405904
 H          1.4794830524       -1.7985464364        1.1253992179
 H          2.2580179954       -0.4598098879        1.9600685608
