  89
       -145.15520716
 C         -4.1982631737        2.9767542750       -1.9841379822
 C         -3.1765424229        3.9983697261       -1.5018028405
 C         -1.7470012984        3.6070486884       -1.8752983613
 C         -0.7442132344        4.6424745196       -1.3679209978
 C          0.7047625857        4.3699554692       -1.7767444002
 C          1.2738008883        3.0805818497       -1.1897081918
 O          1.1860031089        3.1032167668        0.2438607544
 C          0.3471690386        2.2370490046        0.8222779143
 O         -0.2574630684        1.3723034403        0.2321646766
 N          0.2574039616        2.5217698503        2.1591177553
 C         -0.4022177556        1.7794144706        3.1459846912
 N         -0.1191189938        1.8497652537        4.3723467713
 C         -1.5026692754        0.9110138563        2.6878301322
 C         -2.4815851338        1.3908844252        1.8226610581
 C         -3.4262625461        0.5343806743        1.2992727971
 C         -3.3985102907       -0.8134982981        1.6432553795
 N         -4.2429377415       -1.7243877829        0.9538183924
 N         -4.9291746648       -2.7028244484        1.4604775374
 O         -4.9376301009       -2.8490655137        2.6924452101
 C         -4.3039344121       -1.6429008066       -0.5143871101
 O         -5.1749115799       -0.6458408326       -0.9285215940
 C         -2.9087345576       -1.3927177784       -1.0257014902
 N         -1.8679211882       -1.7429171303       -0.3133498395
 C         -0.7791913067       -1.3040682162       -1.0119591938
 C          0.5666891343       -1.3292995124       -0.6799460299
 C          1.4549379426       -0.7496796701       -1.5718374590
 C          2.8811977796       -0.6029370815       -1.1966374956
 O          3.4735466629        0.4632702889       -1.3524896044
 N          3.5051210166       -1.6686732297       -0.6186058669
 C          4.7241180054       -1.4225027132        0.1351541840
 C          4.4191391077       -0.8779629259        1.5393567718
 C          3.8653798227        0.5240383529        1.4474555341
 O          2.6909563180        0.8178548696        1.5711457327
 O          4.8368537134        1.3925747371        1.2399783950
 C          4.5354103545        2.7777091042        1.0013178939
 C          5.1932193140        3.2057567821       -0.2997723488
 C          2.9956085265       -2.9743125074       -0.6163473151
 C          2.3553748480       -3.5066306718       -1.7380051467
 C          1.9025169726       -4.8098598980       -1.6730260084
 C          2.1160745487       -5.5457938055       -0.5143788599
 C          2.8023554030       -4.9388217601        0.5216027479
 N          3.2359037841       -3.6883026651        0.4756265896
 C          1.0080695392       -0.1544850529       -2.7637063918
 C         -0.3243545021       -0.1304704025       -3.1100561968
 C         -1.2183418285       -0.7000597523       -2.2138543584
 N         -2.5862552240       -0.7800363826       -2.1984298978
 C         -3.4309762791       -0.3677506853       -3.2904367900
 C         -2.4944684711       -1.2775574469        2.5902018605
 C         -1.5496438344       -0.4133324001        3.1064077759
 H         -3.9794348030        1.9982855316       -1.5640117832
 H         -5.1999305240        3.2677574636       -1.6785425661
 H         -4.1782788455        2.9043766056       -3.0687008341
 H         -3.4059283204        4.9755984500       -1.9331688804
 H         -3.2462791989        4.0946340371       -0.4152379494
 H         -1.5222931161        2.6273557595       -1.4455500997
 H         -1.6629146196        3.5260889989       -2.9613020056
 H         -1.0264351834        5.6242918379       -1.7542743930
 H         -0.8027335039        4.6917783754       -0.2772286315
 H          0.7793788069        4.2949408777       -2.8614142646
 H          1.3245057619        5.2033541743       -1.4431686069
 H          0.7383089526        2.1993207744       -1.5514418593
 H          2.3319269122        2.9685286229       -1.4352605916
 H          0.6578443100        2.4635111943        4.6005985819
 H         -2.4862314635        2.4315553112        1.5369527563
 H         -4.1585068618        0.8999060550        0.5973006110
 H         -4.6446842193       -2.6393033708       -0.8378421656
 H          0.8876837855       -1.7302028415        0.2681813088
 H          5.2546614751       -2.3684362990        0.2251420609
 H          5.3227802764       -0.6963032394       -0.4201132261
 H          3.6942899849       -1.5260077277        2.0297447476
 H          5.3487527272       -0.8439544095        2.1046268107
 H          3.4495118877        2.8969573748        0.9557785494
 H          4.9358815609        3.3348210173        1.8524007244
 H          4.8264119170        2.5808174431       -1.1109075240
 H          4.9506776076        4.2433834801       -0.5036663797
 H          6.2706739289        3.0919003574       -0.2279201233
 H          2.2325332673       -2.9144016232       -2.6294184540
 H          1.4033489840       -5.2514214453       -2.5213225279
 H          1.7752479479       -6.5635825276       -0.4274221452
 H          3.0271754421       -5.4648144128        1.4386290911
 H          1.7465295161        0.3029958894       -3.4052183301
 H         -0.6514970085        0.3379870764       -4.0238795643
 H         -3.3810392624       -1.1044968385       -4.0935678762
 H         -4.4540367518       -0.2678238652       -2.9437048277
 H         -3.0799998399        0.5925810153       -3.6631344621
 H         -2.4981951709       -2.3159585007        2.8790650591
 H         -0.8099234886       -0.7690665685        3.8048265306
 H          0.9510501868        3.1854147162        2.4888450185
 H         -6.0925254212       -0.8914035465       -0.7326689781
