  40
        -60.48940861
 C         -4.6905460582       -1.2672621286        0.9169582343
 C         -3.4333632914       -0.4199596347        1.0793158330
 C         -2.7521050572       -0.1181992790       -0.2642586769
 C         -2.0748896468       -1.3693418900       -0.8515191070
 O         -1.2778037694       -1.0921053434       -1.9807880126
 N         -1.7965823187        0.9664535613       -0.1118148438
 C         -0.5656437561        0.7854827969        0.6320741165
 C          0.6521683827        0.8349866905       -0.3103477046
 N          1.8392571327        0.3704192682        0.3700551264
 N          2.2500378549        1.1189779188        1.3293717219
 O          3.2604175323        0.7621206164        1.9762570954
 C          2.4812241990       -0.8794535231       -0.0221795515
 C          3.1244712119       -0.7643161526       -1.4084540788
 C          4.1634960327        0.3490366458       -1.4737570506
 C          1.4856901233       -2.0519706528        0.0174150302
 O          0.7350546572       -2.1124820234        1.2083646774
 N         -2.1457924610        2.0903233667       -0.6268372798
 O         -1.3698398107        3.0602692725       -0.4784393908
 H         -4.4511550131       -2.2588584834        0.5454475675
 H         -5.1832452614       -1.3767804638        1.8789033788
 H         -5.3858957927       -0.7928031503        0.2297570873
 H         -3.7038294722        0.5313863569        1.5406225073
 H         -2.7330826330       -0.9302834552        1.7415473480
 H         -3.4989668637        0.2671146555       -0.9657235883
 H         -1.4080657687       -1.8146496040       -0.1105161232
 H         -2.8506957214       -2.1004014594       -1.0961042673
 H         -0.4821199012        1.6014674878        1.3562474057
 H         -0.5945079679       -0.1716800149        1.1474048464
 H          0.4624185339        0.1990159462       -1.1739994883
 H          0.8026095683        1.8657748351       -0.6407607131
 H          3.2650969124       -1.0295563921        0.7331580097
 H          3.6014836985       -1.7189772850       -1.6320051501
 H          2.3513930436       -0.5904194961       -2.1577378160
 H          3.7043350840        1.3224431125       -1.3135007489
 H          4.9266721291        0.2086425645       -0.7106777807
 H          4.6454474578        0.3561604154       -2.4470201919
 H          0.7608875851       -1.9522874382       -0.7925665777
 H          2.0470825294       -2.9797709039       -0.1385181127
 H         -1.8427577810       -0.8644846743       -2.7311605997
 H          1.3096318031       -2.3520704699        1.9471973846
