  19
        -33.62363347
 C         -1.4566023371       -0.9461137493       -1.5152441607
 N         -1.4182346935       -0.1892245711       -0.2913148617
 C         -1.2107437204       -0.8990380592        0.9572564794
 C          0.2075256612       -1.4428162760        1.1333564517
 C          1.2569326870       -0.3392292320        1.1988766866
 C          1.7380251202        0.1480201331       -0.1975747453
 O          2.2601546899        1.2819316435       -0.2386718419
 O          1.6050905280       -0.6286366777       -1.1664088345
 N         -1.5271467373        1.0797169800       -0.4039108801
 O         -1.4375965818        1.7809166445        0.6360576093
 H         -0.4371056811       -1.2356749557       -1.7840703837
 H         -2.0728347241       -1.8313104451       -1.3771103721
 H         -1.8579552433       -0.3085820805       -2.2973209231
 H         -1.4307059575       -0.1807191015        1.7542050915
 H         -1.9276562225       -1.7224525232        0.9880646827
 H          0.2246155851       -2.0233979492        2.0565289172
 H          0.4650336580       -2.0967694719        0.2973875733
 H          0.8970243820        0.5398608253        1.7385116857
 H          2.1579572051       -0.6963986997        1.7041004190
