  51
       -105.50510849
 N          2.5057963521       -3.4310692461       -1.0668650075
 C          1.3868128819       -2.8267230686       -0.6754162595
 N          0.2387718401       -3.1443487950       -1.2289487222
 C         -0.8699614170       -2.5765900289       -0.7248170335
 N         -2.0551185512       -2.9232444224       -1.2597024278
 C         -3.1404607661       -2.3805960694       -0.7516394571
 C         -3.0993895498       -1.5089826854        0.3373624793
 C         -4.3047698814       -0.8148511817        0.9368038394
 O         -4.1983624071       -0.6573835986        2.3007634868
 N         -4.4061368233        0.4925141966        0.2467447084
 N         -5.5542551325        0.7909269207       -0.2690106179
 O         -5.6425286139        1.8498344687       -0.9100966210
 C         -3.1864767816        1.2105620852        0.0616931030
 C         -2.6642088771        1.3179682987       -1.2208698550
 C         -1.4006566096        1.8455345564       -1.3902285139
 C         -0.6463125389        2.2363734135       -0.2884953922
 C          0.7605524281        2.6408088583       -0.5480100705
 O          1.0665878676        3.3009789815       -1.5426314974
 N          1.6584046163        2.2603871890        0.3905074028
 C          3.0389022914        2.1496850480       -0.0348233682
 C          3.9948311358        1.9578317279        1.1381543872
 C          3.9174346685        0.5710369003        1.7730780087
 C          4.7238294543       -0.4591950930        0.9503601542
 O          5.9229326845       -0.2223651213        0.7400715972
 O          4.1378601539       -1.5186956638        0.5997147166
 C          3.1517100885        1.0000157924       -1.1043637685
 O          4.2168456296        0.9349870652       -1.7405041791
 O          2.1441925870        0.2789214913       -1.2592334425
 C         -1.2040812396        2.1866225490        0.9841694161
 C         -2.4804378537        1.6869785567        1.1588697314
 N         -1.9422111656       -1.1608497208        0.8876590439
 C         -0.8318306789       -1.6512489164        0.3582704508
 C          0.4713385924       -1.2221869737        0.8666436846
 O          0.6377700705       -0.3047309876        1.6673913678
 N          1.5054970894       -1.9576938824        0.3775433173
 H          2.4748051763       -3.9593133763       -1.9245029945
 H          3.3791368034       -3.0274583136       -0.7528721282
 H         -4.0734185865       -2.6724376423       -1.2125638948
 H         -5.2452024625       -1.3315211576        0.7218366850
 H         -3.2577369596       -0.5635035367        2.5322821852
 H         -3.2294623958        0.9646300797       -2.0699431825
 H         -0.9518355875        1.9166817289       -2.3696916503
 H          1.3536231351        1.5137108272        1.0090805241
 H          3.2909751257        3.0728964111       -0.5709304550
 H          5.0138042617        2.0921214903        0.7641111650
 H          3.7815458320        2.7267708614        1.8842505158
 H          4.3840251220        0.6016098719        2.7609456463
 H          2.8865820102        0.2295837902        1.8783059259
 H         -0.6332504395        2.5241696847        1.8336966726
 H         -2.9205761601        1.6479958661        2.1415977396
 H          2.4849242295       -1.6767299146        0.6106294209
