  17
        -23.52035246
 C         -1.8300775656        0.7862362975       -0.9423345879
 C         -1.0280177492       -0.3647849217       -0.3414654333
 C         -1.7576001281       -0.9958584830        0.8435983929
 N          0.3030268977        0.0811159524        0.0462527110
 C          0.4583624540        1.1836037675        0.9683814935
 N          1.2765244899       -0.5640635691       -0.4792802962
 O          2.4468371625       -0.2205653884       -0.1802830441
 H         -2.7562095397        0.3973870355       -1.3536557910
 H         -2.0744931338        1.5272518335       -0.1868736195
 H         -1.2718064300        1.2634449813       -1.7434169066
 H         -0.8521849117       -1.1300981501       -1.1030716140
 H         -2.0337169782       -0.2476812186        1.5811672237
 H         -2.6647958504       -1.4742056489        0.4883187179
 H         -1.1332286247       -1.7490732564        1.3168081753
 H          1.4990617267        1.1907081482        1.2955779626
 H          0.2374345520        2.1260764675        0.4691164319
 H         -0.2003425840        1.0492589204        1.8213812090
