  90
       -145.33905384
 C         -2.3113234619       -0.5909162408       -2.4259535375
 C         -3.5663363534       -0.9656192669       -1.6451255849
 C         -3.8929443122       -2.4516056861       -1.7860628000
 C         -5.1716417962       -2.8636442159       -1.0530758466
 C         -5.1021866484       -2.7831977012        0.4739512844
 C         -4.2470105550       -3.8671229491        1.1239939044
 O         -2.8415541004       -3.7377566290        0.8376028335
 C         -2.1851702149       -2.7601728535        1.4379391177
 O         -2.6472219419       -1.9784060569        2.2305681815
 N         -0.8433968383       -2.6679925380        1.0640763000
 C         -0.1161165248       -3.4118814061        0.2189942296
 N         -0.5690726788       -4.4772093825       -0.3774314264
 C          1.2513948552       -2.9468490048       -0.0486777218
 C          1.7572390652       -3.0061382147       -1.3497452195
 C          2.9931085657       -2.4688737961       -1.6441262685
 C          3.7426566462       -1.8695283496       -0.6359252146
 N          4.9675899621       -1.2278547332       -0.9454603975
 N          5.8988884222       -1.6597808687       -1.7468675980
 O          5.7582617250       -2.7677124326       -2.2802324270
 C          5.2523890032        0.0948090456       -0.3764410144
 O          5.6221746834        0.0219908339        0.9611455514
 C          4.0339820754        0.9659997186       -0.4993949784
 N          2.8916881834        0.5553205166       -0.9833986055
 C          2.0469343325        1.6243211057       -0.8760638454
 C          0.6988798305        1.7249088239       -1.1909446571
 C          0.0623183000        2.9186698365       -0.9083791977
 C         -1.3974943091        3.0153017588       -1.2401048470
 O         -1.7579097519        3.2610366061       -2.3847825614
 N         -2.2513890775        2.7432049435       -0.2139974873
 C         -1.7343680321        2.4368593607        1.1143825423
 C         -1.4029059040        0.9496820630        1.2722968685
 C         -0.2446834908        0.6641337740        2.1871784917
 O          0.2499359172       -0.4472286882        2.2813444211
 O          0.1739365734        1.7001775586        2.8749134105
 C          1.2818195824        1.5164112192        3.7764133645
 C          2.6071017414        1.6720697106        3.0481928351
 C         -3.6296328717        2.5341995569       -0.3980478761
 C         -4.3634621058        3.1064504790       -1.4363980071
 C         -5.7107814985        2.8028236267       -1.5255837303
 C         -6.2869252154        1.9580047835       -0.5877807000
 C         -5.4742650184        1.4627023418        0.4172149259
 N         -4.1863790611        1.7413182370        0.5129233942
 C          0.7656631710        4.0115548127       -0.3797391554
 C          2.1094931511        3.9305403930       -0.0790878538
 C          2.7456670761        2.7178233009       -0.3116711432
 N          4.0210568403        2.2639115186       -0.0901069214
 C          5.1192659358        2.9977494548        0.4805553536
 C          3.2826201931       -1.8809360363        0.6791200395
 C          2.0404208958       -2.4030835842        0.9679942343
 H         -2.4073672063       -0.8909016115       -3.4671974387
 H         -2.1575530495        0.4871211738       -2.4086987365
 H         -1.4329959234       -1.0800509038       -2.0084854389
 H         -3.4278820713       -0.7011634505       -0.5949990575
 H         -4.4078636950       -0.3743606471       -2.0162038546
 H         -4.0246145060       -2.6738733883       -2.8474968941
 H         -3.0502631891       -3.0416541284       -1.4295846489
 H         -5.9835824739       -2.2152926101       -1.3894757965
 H         -5.4303036676       -3.8851235241       -1.3392106905
 H         -4.7446177709       -1.8022292351        0.7878536512
 H         -6.1099006782       -2.9055402100        0.8727730172
 H         -4.3799631396       -3.8349273253        2.2085754765
 H         -4.5106968609       -4.8533324220        0.7426283784
 H         -1.5188525631       -4.7962096845       -0.2184623939
 H          1.1643103645       -3.4079790611       -2.1554582737
 H          3.3605301393       -2.4805058984       -2.6571801906
 H          6.0634767602        0.5015112739       -1.0005167867
 H          0.1787762819        0.8968615646       -1.6431610272
 H         -0.8440558704        3.0402180592        1.2834689958
 H         -2.4974899703        2.7262808803        1.8355031906
 H         -2.2703340969        0.4074910505        1.6584775171
 H         -1.1615576802        0.5149692917        0.3009005706
 H          1.1519180639        2.2902805692        4.5328678083
 H          1.2020057228        0.5259511656        4.2321268937
 H          2.6979692334        0.9205092267        2.2668832107
 H          2.6688154656        2.6595110515        2.5992178203
 H          3.4213499515        1.5482606186        3.7544613473
 H         -3.8948478391        3.7599085199       -2.1511655396
 H         -6.3040831682        3.2299034217       -2.3197447170
 H         -7.3320730807        1.7008399686       -0.6330600655
 H         -5.8610316038        0.8100190059        1.1878090297
 H          0.2359907850        4.9360692821       -0.2065009005
 H          2.6307843376        4.7832219560        0.3256780160
 H          5.9291895581        3.0898185313       -0.2438333809
 H          4.7756525256        3.9908708441        0.7547856340
 H          5.4863413483        2.4818266691        1.3668220023
 H          3.8841221753       -1.4512880654        1.4631264470
 H          1.6936802582       -2.3985171883        1.9877250899
 H         -0.3763481554       -1.8486846562        1.5062581648
 H          0.0375508601       -5.0168347800       -0.9814235037
 H          6.5176494105       -0.3364350167        1.0557540099
