  46
        -81.26566969
 O         -4.8301406345        2.2856935779       -1.1960937845
 N         -4.9232891014        1.0443705879       -1.0780677988
 N         -4.2993699578        0.4820850046       -0.1105024561
 C         -3.4310093136        1.1340796357        0.8462612438
 C         -1.9755371298        0.6852143385        0.6467862251
 C         -1.1442525898        1.3347935812        1.7707735594
 O          0.1669289676        0.8323044215        1.9263079560
 C          1.1512551774        1.1461662716        1.0406450513
 C          1.0135096358        1.9860079038       -0.0552091388
 C          2.0733716321        2.2079612993       -0.9348674594
 C          3.2568771567        1.5670320613       -0.6787697019
 C          3.4074028880        0.7470253964        0.4402974214
 C          2.3806879232        0.5256798576        1.3164716831
 O          4.6813540166        0.2418809138        0.4705931424
 C          5.3239397384        0.7348200134       -0.6910216629
 O          4.4384397469        1.5891695076       -1.3883973078
 C         -1.8818524454       -0.8525562041        0.6618162396
 C         -0.5018379366       -1.3383825655        0.2803589544
 C          0.0662930755       -0.9861859052       -0.9396031650
 C          1.3238655357       -1.4347300264       -1.2988285891
 C          2.0080600669       -2.2467134112       -0.4176376555
 F          3.2585433727       -2.6806359073       -0.7586196704
 C          1.4722421650       -2.6292155748        0.7953295032
 C          0.2116108751       -2.1696764037        1.1341467058
 C         -2.9031219991       -1.4655234123       -0.3093515352
 C         -4.3286280187       -0.9789150538       -0.0152947318
 O         -5.2955374669       -1.5367412402       -0.8216212706
 H         -3.5330893256        2.2112393007        0.6883321588
 H         -3.7741538839        0.8793737850        1.8512618740
 H         -1.6308390279        1.0470846482       -0.3246086178
 H         -1.1289973739        2.4221460473        1.6361254469
 H         -1.6110806407        1.1109019424        2.7335216948
 H          0.0832175272        2.4905782970       -0.2518288613
 H          1.9622567325        2.8528023174       -1.7891428488
 H          2.4855481839       -0.1072887840        2.1790156308
 H          6.2227537150        1.2961072890       -0.4004202233
 H          5.6037587716       -0.1112544694       -1.3371191948
 H         -2.1059915921       -1.1988327981        1.6746259181
 H         -0.4639366844       -0.3504286284       -1.6309028661
 H          1.7726324398       -1.1581573432       -2.2391211857
 H          2.0375268050       -3.2673895315        1.4546544724
 H         -0.2126353104       -2.4549121837        2.0836424171
 H         -2.6495046730       -1.1964170966       -1.3358090562
 H         -2.8831259541       -2.5518607701       -0.2268912742
 H         -4.6127634298       -1.2340834933        1.0137969650
 H         -5.1460363477       -1.3031048173       -1.7500356560
