  21
        -30.75568002
 C         -2.1578095842        0.6557219090       -1.0623114166
 C         -1.5612434494       -0.4026109087       -0.1394707604
 C         -2.1221875113       -0.3066031247        1.2775630000
 N         -0.1052585051       -0.3220333817       -0.1222400581
 N          0.5081179171       -1.3923821891       -0.4709519422
 O          1.7619268704       -1.3895863090       -0.4405232979
 C          0.5851649392        0.9030261672        0.3286845598
 C          1.2699772240        1.5759489099       -0.8607397971
 O          1.4574633133        0.6106224346        1.3757482341
 H         -1.7316943353        0.5758179239       -2.0585654905
 H         -3.2292406042        0.4968213134       -1.1328156975
 H         -1.9841324186        1.6575537723       -0.6801849038
 H         -1.7702374812       -1.3980602590       -0.5424674943
 H         -1.9795617250        0.6861012168        1.6951640512
 H         -3.1857661005       -0.5215162048        1.2541646499
 H         -1.6346566763       -1.0286692385        1.9272119437
 H         -0.1707582179        1.5638594461        0.7587455721
 H          1.9813141706        0.8929314545       -1.3208371413
 H          0.5328300968        1.8753515481       -1.5985992777
 H          1.8039335311        2.4522559522       -0.5051314474
 H          2.1659562204        0.0341255730        1.0383790398
