  50
       -101.43834060
 N          2.3323743829       -3.5899697470       -0.9227112771
 C          1.2368073104       -2.9413378466       -0.5262697132
 N          0.0674571471       -3.2538369310       -1.0309414322
 C         -1.0116011009       -2.6241232957       -0.5286007627
 N         -2.2177580050       -2.9544853986       -1.0242189757
 C         -3.2699233919       -2.3446122137       -0.5232385370
 C         -3.1826893442       -1.4125269126        0.5154424870
 C         -4.3744684530       -0.6755757205        1.0553986658
 N         -4.4842493880        0.6132535595        0.3589609255
 N         -5.5251509689        0.9830392216       -0.3049214508
 O         -6.5173362545        0.2296766333       -0.3003360198
 C         -3.3010193451        1.3727073515        0.2378752521
 C         -2.4566076821        1.5344596782        1.3329539568
 C         -1.1992597265        2.0777618658        1.1595415479
 C         -0.7738458728        2.4556237579       -0.1100941735
 C          0.6308164225        2.8221624524       -0.4267943979
 O          0.9055954361        3.5901762306       -1.3515813559
 N          1.5713892350        2.2549089920        0.3618058386
 C          2.9093641749        2.1023978351       -0.1699833366
 C          3.9530720876        1.9268786205        0.9303576007
 C          3.9025953887        0.5609615167        1.6112213287
 C          4.6507563022       -0.5041821562        0.7780244339
 O          5.8234603750       -0.2675599128        0.4499116722
 O          4.0537583640       -1.5886284836        0.5408198846
 C          2.9181734947        0.9143442273       -1.2001594633
 O          1.8967899320        0.1963018522       -1.2377335613
 O          3.9201001761        0.8159363145       -1.9288320423
 C         -1.6686370169        2.3998377477       -1.1767689198
 C         -2.9255315310        1.8563661997       -1.0110265985
 N         -2.0017891353       -1.0808663812        1.0215841151
 C         -0.9209833534       -1.6473806574        0.5031219970
 C          0.4069026765       -1.2448980875        0.9659850391
 O          0.6270781709       -0.3067217451        1.7292454690
 N          1.4076442918       -2.0320932531        0.4844723706
 H          2.2629509880       -4.1436056939       -1.7617499703
 H          3.2210120191       -3.1804554673       -0.6642431363
 H         -4.2225120285       -2.6244500203       -0.9529303062
 H         -5.3083057435       -1.2076636865        0.8524688239
 H         -4.2533315679       -0.4985878427        2.1236513496
 H         -2.7599163621        1.2145095308        2.3146030899
 H         -0.5373590789        2.1732606608        2.0043444826
 H          1.2654697469        1.4665010033        0.9248927217
 H          3.1340440275        3.0048300408       -0.7514371379
 H          4.9419929921        2.0308270576        0.4745740776
 H          3.8109111592        2.7212338000        1.6668118053
 H          4.4263151479        0.6155871444        2.5692006437
 H          2.8771056059        0.2330317173        1.7874858588
 H         -1.3282003423        2.7367916132       -2.1441507857
 H         -3.6007815244        1.7572681675       -1.8455427402
 H          2.3970821586       -1.7565634756        0.6692955841
