  43
        -64.79812687
 C         -3.0976205779        0.2076776929        0.9385365153
 N         -2.6950334865       -1.1225137589        0.5379062598
 N         -2.1913975865       -2.0061853848        1.3217288059
 O         -2.0052028029       -1.6801873910        2.5150695620
 C         -2.7990487270       -1.4964278191       -0.8731423018
 O         -4.0732732887       -1.2327485289       -1.3559070636
 C         -1.7779896576       -0.6912924677       -1.6920725575
 C         -0.3785642136       -1.0273619688       -1.2884332414
 C          0.5165622938       -0.1793264113       -0.7773477388
 C          1.8894089790       -0.6285267526       -0.4659552341
 C          2.5250599916       -1.4078020150       -1.4370485126
 C          3.8144394368       -1.8680260618       -1.2737725898
 C          4.5063945637       -1.5497877006       -0.1169266567
 C          3.8902119566       -0.7792564629        0.8475121005
 C          2.5879923817       -0.3037031903        0.7002338751
 C          2.0616074171        0.5172893431        1.8512401323
 C          0.5606467856        0.8075444329        1.8660838993
 C          0.2070638856        1.7407796554        0.7483105958
 C         -0.0885533526        3.0774244049        0.9700651974
 C         -0.3689121032        3.9225977298       -0.0907046122
 C         -0.3495041469        3.4355328117       -1.3865625044
 C         -0.0598373123        2.1020607927       -1.6189727433
 C          0.2167513924        1.2507382995       -0.5568611997
 H         -2.2503976635        0.8933385423        0.8883803573
 H         -3.8894616717        0.5387123944        0.2724418824
 H         -3.4441301781        0.1570852765        1.9710742070
 H         -2.5434809863       -2.5636467485       -0.9088616488
 H         -1.9363901397       -0.9610362326       -2.7382808722
 H         -1.9876979200        0.3709099760       -1.5764275311
 H         -0.1111693644       -2.0703639268       -1.3952313093
 H          1.9901008696       -1.6350021129       -2.3469460406
 H          4.2790045719       -2.4654328731       -2.0434330768
 H          5.5172421881       -1.8984685383        0.0312733288
 H          4.4281087024       -0.5325567240        1.7523288090
 H          2.3214812785       -0.0041320922        2.7766512090
 H          2.5989778810        1.4722864403        1.8578891179
 H          0.0105903475       -0.1330661147        1.7808966691
 H          0.3013898647        1.2585648107        2.8261141952
 H         -0.1022132545        3.4567915209        1.9818384249
 H         -0.5985512241        4.9608909206        0.0951881399
 H         -0.5609749789        4.0930591435       -2.2159861042
 H         -0.0361889433        1.7158893008       -2.6270060442
 H         -4.7077853974       -1.9017167830       -1.0607206130
