  30
        -62.00726506
 O         -1.1118051181       -0.2949617844       -2.5748247186
 N         -0.2764053858        0.4056703837       -1.9637214323
 N         -0.3435174290        0.4241633217       -0.6728700056
 C          0.6353948749        1.1371961147        0.0636116354
 C          0.1903703242        1.8511966990        1.1728446455
 C          1.0830049482        2.5505207633        1.9601636497
 C          2.4314252930        2.5298956201        1.6442630445
 C          2.8713561368        1.8189430387        0.5441390824
 C          1.9940544291        1.1129890610       -0.2765029780
 C          2.5578662413        0.2762233743       -1.3702710791
 C          2.9969330628       -1.1285626231       -0.8080864491
 O          2.6550649352       -2.1188791043       -1.4840417646
 O          3.6402858095       -1.1508667286        0.2567105304
 C         -1.3457823360       -0.2672574301        0.0773677076
 C         -0.9997140192       -1.3513208474        0.8850280405
 Cl         0.6841607982       -1.8747067742        0.9130390881
 C         -1.9765922812       -2.0100852260        1.6139557997
 C         -3.2964748037       -1.5979187699        1.5284028461
 C         -3.6590681590       -0.5355146823        0.7190291593
 C         -2.6806973064        0.1262356740       -0.0030254910
 Cl        -3.1024617949        1.4719963247       -1.0032448174
 H         -0.8625420581        1.8523897502        1.4073492474
 H          0.7275815134        3.1005327619        2.8156729790
 H          3.1441707054        3.0617783700        2.2540913467
 H          3.9244505859        1.7788353532        0.3093235810
 H          1.8591152845        0.0899311270       -2.1845165723
 H          3.4678159414        0.7250753070       -1.7712465287
 H         -1.6886924075       -2.8407534178        2.2334690038
 H         -4.0523730446       -2.1141375108        2.0966870993
 H         -4.6823392687       -0.2085904008        0.6431960697
