  46
        -81.26724624
 O         -4.9250533811        2.4110508813       -1.1656528050
 N         -4.9751574084        1.1650078837       -1.2313295986
 N         -4.3094514247        0.4885532611       -0.3674094921
 C         -3.4850463683        1.0192193090        0.6962143358
 C         -2.0188788956        0.6097534537        0.5048849387
 C         -1.2447095877        1.1425758360        1.7264496336
 O          0.0643480179        0.6370022944        1.8924180746
 C          1.0847468296        1.0462426745        1.0915693563
 C          0.9874072178        1.9888861236        0.0779115893
 C          2.0849846000        2.3085788912       -0.7216734187
 C          3.2646683095        1.6585837254       -0.4710442872
 C          3.3734013694        0.7331245347        0.5676722238
 C          2.3092493901        0.4150383196        1.3658038964
 O          4.6523278774        0.2413938446        0.6116828835
 C          5.3439179138        0.8570531076       -0.4596780262
 O          4.4792944160        1.7646053388       -1.1147670517
 C         -1.9207221818       -0.9202563297        0.3652353227
 C         -0.5184328437       -1.3722215907        0.0325907126
 C          0.1401779424       -2.2830611353        0.8484533411
 C          1.4221444141       -2.7116106523        0.5513953750
 C          2.0352120110       -2.2171409228       -0.5818663386
 F          3.3068691136       -2.6218520955       -0.8804950895
 C          1.4079655650       -1.3227536314       -1.4247439655
 C          0.1281539536       -0.9063197626       -1.1077215762
 C         -2.8718004955       -1.4167730862       -0.7350979180
 C         -4.3137185982       -0.9670383674       -0.4885219152
 O         -4.7923597893       -1.5502022849        0.6777934892
 H         -3.6010442559        2.1058545805        0.6859882565
 H         -3.8605155504        0.6133017229        1.6386475792
 H         -1.6399568645        1.0724336525       -0.4096821241
 H         -1.2355274520        2.2384489405        1.7067654980
 H         -1.7529526365        0.8152992548        2.6372779523
 H          0.0594211350        2.4993114411       -0.1143163822
 H          2.0051917857        3.0335832376       -1.5128753441
 H          2.3819507342       -0.2997586974        2.1654808642
 H          6.2157830983        1.3988955667       -0.0674049268
 H          5.6727707519        0.0839785972       -1.1707587609
 H         -2.2279134921       -1.3720859921        1.3119916799
 H         -0.3465069368       -2.6564861206        1.7353474557
 H          1.9450231199       -3.4112725980        1.1828570480
 H          1.9166932534       -0.9592137791       -2.3028819383
 H         -0.3582051812       -0.2054213825       -1.7676360524
 H         -2.5558477334       -1.0390289051       -1.7067156231
 H         -2.8539937459       -2.5054640062       -0.7609339089
 H         -4.9366653531       -1.2004870056       -1.3608265818
 H         -5.7586403247       -1.5283521181        0.7132782424
