  43
        -77.76855247
 O         -6.6991696853        0.1855468846       -1.3432870970
 N         -5.8494789687        0.9795924523       -0.8753991623
 N         -4.6532759581        0.5502710743       -0.7083237988
 C         -3.6848322331        1.4471199630       -0.1271566845
 C         -3.1227531275        0.7948404465        1.1478835016
 N         -2.5773366003       -0.5133249822        0.8625749411
 C         -1.2474369721       -0.6905952842        0.5893545736
 C         -0.3868377461        0.3878705154        0.3595786916
 C          0.9814840358        0.2292220672        0.1551156815
 C          1.5480242940       -1.0571217900        0.1432017366
 C          0.7017843954       -2.1460149763        0.3762671845
 C         -0.6325945789       -1.9646412051        0.6007933873
 F         -1.3713017714       -3.0811039949        0.8775629182
 C          2.9717535649       -1.2960398411       -0.0954554682
 O          3.4517679724       -2.4341520928       -0.0775958957
 C          3.7203441099       -0.0774485270       -0.3510766176
 C          5.1554177302       -0.0696150065       -0.6473161338
 O          5.7928776164        0.9599217269       -0.8268696173
 O          5.7289334619       -1.2609720323       -0.7109014053
 C          3.0928390117        1.1431029839       -0.3176857940
 N          1.7991570483        1.3261124753       -0.0595181132
 C          1.2594264546        2.6607085739       -0.0332329937
 C          0.7479588619        3.2178144730        1.2651114690
 C          2.0195486080        3.7416831109        0.6740405432
 C         -3.6042758555       -1.3884322199        0.3427612224
 C         -4.1819691872       -0.7965640979       -0.9557379452
 H         -2.8832437433        1.6111868339       -0.8517669544
 H         -4.1850518509        2.3880080823        0.0965172569
 H         -2.3729285778        1.4297556978        1.6126284316
 H         -3.9410519266        0.6563390030        1.8598488360
 H         -0.7901790855        1.3824809074        0.3274727134
 H          1.1296170577       -3.1362880141        0.3940219862
 H          3.6873874048        2.0243234599       -0.5183801873
 H          0.7377159464        2.9175563359       -0.9477433038
 H         -0.1317812951        3.8407410463        1.2393438578
 H          0.8257676538        2.5933808443        2.1410009640
 H          2.9452253019        3.4793208128        1.1611616213
 H          2.0244849216        4.7241505125        0.2305258808
 H         -3.2252959755       -2.3830634328        0.1298863948
 H         -4.4005969597       -1.4764377686        1.0871903994
 H         -5.0311606625       -1.3862728314       -1.3092095957
 H         -3.4101448359       -0.7664761525       -1.7294080279
 H          6.6829477129       -1.1902464688       -0.9069347039
