  88
       -141.09974241
 C         -0.2422008778       -1.5713629877        1.9583803465
 C          1.1921374060       -1.3028014898        1.5215698759
 C          1.9911478697       -0.6227154125        2.6308357860
 C          3.4329524854       -0.3404142632        2.2187385866
 C          4.2197746025        0.3328844565        3.3416716606
 C          5.6515697849        0.6430981650        2.9298050820
 O          5.6190783841        1.5685789479        1.8439949471
 C          6.8127432498        1.9584266282        1.3262110052
 O          7.8751698886        1.6112343325        1.8159654023
 N          6.6818856918        2.8327109848        0.3177304745
 C          5.8063391671        2.7494888207       -0.6422030989
 N          5.5596156153        3.8122775912       -1.3944234460
 C          5.1148988145        1.4833104027       -0.9745414126
 C          5.7939654591        0.2726327401       -0.8701383973
 C          5.1393343257       -0.9210406892       -1.0957266456
 C          3.7873730998       -0.9136264992       -1.4281383223
 N          3.1062760708       -2.1379685108       -1.6301187030
 C          2.1133387213       -2.2319512960       -2.6954132409
 C          0.7213187156       -1.9926715404       -2.2015423232
 N          0.1532226344       -0.8137634288       -2.1722411715
 C         -1.1195401338       -1.0288659564       -1.7155886020
 C         -2.1728364746       -0.1458968272       -1.5221089748
 C         -3.3795152155       -0.6610429735       -1.0765043296
 C         -4.5310195216        0.2696860843       -0.9763756238
 O         -4.7103021138        1.1388057542       -1.8285544358
 N         -5.4357212534        0.0759634665        0.0202822356
 C         -6.6521813564        0.8708202101        0.0084630876
 C         -6.4913211085        2.1427903620        0.8604906835
 C         -5.2779724265        2.9099404131        0.3882274239
 O         -4.1385176073        2.6335299017        0.7080337438
 O         -5.6150636018        3.9124253245       -0.4007643298
 C         -4.5858241933        4.6916429121       -1.0339907273
 C         -4.5614778779        4.3944609431       -2.5246322847
 C         -5.1832949944       -0.6555135453        1.1932040769
 C         -3.9356534082       -0.6295268456        1.8161710989
 C         -3.7708492627       -1.3672341349        2.9734365645
 C         -4.8445867032       -2.0911254844        3.4743626063
 C         -6.0499715906       -2.0186147191        2.7984273889
 N         -6.2208440305       -1.3184177025        1.6882273991
 C         -3.5439283155       -2.0391614280       -0.8520069107
 C         -2.5105072832       -2.9284489731       -1.0408307315
 C         -1.2921611634       -2.4144273427       -1.4675480051
 N         -0.0944219166       -2.9983669063       -1.7752431790
 C          0.2340859430       -4.3961210703       -1.6702033342
 N          3.2187473353       -3.2122098195       -0.9148688390
 O          3.9807135753       -3.2140745661        0.0702186758
 C          3.1032569253        0.2922262126       -1.5601263121
 C          3.7684984967        1.4816763089       -1.3350773537
 H         -0.8176793935       -2.0312995131        1.1588264415
 H         -0.2561002109       -2.2330129045        2.8212468141
 H         -0.7257163761       -0.6353463283        2.2288481800
 H          1.6805534312       -2.2440934015        1.2571614932
 H          1.1888700554       -0.6634719731        0.6352634135
 H          1.5035152557        0.3171605531        2.8987606948
 H          1.9910832456       -1.2635061723        3.5153773361
 H          3.9237404818       -1.2763549861        1.9365723824
 H          3.4416432875        0.3137279644        1.3447031818
 H          3.7280682902        1.2665891873        3.6181417610
 H          4.2538199830       -0.3158873960        4.2171352352
 H          6.2229404245        1.0842405044        3.7543648217
 H          6.1754743554       -0.2627482043        2.6008499650
 H          6.0267895229        4.6781081601       -1.1772607885
 H          6.8431352293        0.2686366847       -0.6107778434
 H          5.6765870457       -1.8520645966       -1.0081876856
 H          2.3509482324       -1.4860106883       -3.4532647863
 H          2.1808464885       -3.2350853651       -3.1185762529
 H         -2.0701606569        0.9103486180       -1.7117889329
 H         -6.8564649370        1.1419811414       -1.0288465443
 H         -7.4545812551        0.2541560797        0.4123589354
 H         -7.3773324025        2.7640114877        0.7534211743
 H         -6.3390454154        1.8619375092        1.9031691423
 H         -4.8426618542        5.7347145845       -0.8381597408
 H         -3.6282751151        4.4454532260       -0.5654241754
 H         -4.4028091371        3.3293363038       -2.6812405972
 H         -5.5085069425        4.6744249843       -2.9764881174
 H         -3.7574788864        4.9520326125       -2.9933291965
 H         -3.1437032606       -0.0209833767        1.4115461136
 H         -2.8211605924       -1.3657866287        3.4847936088
 H         -4.7516728931       -2.6772868395        4.3731136332
 H         -6.9296761993       -2.5377418204        3.1513661635
 H         -4.5117464447       -2.4097065067       -0.5523306809
 H         -2.6572407528       -3.9838361635       -0.8769802982
 H          0.2055344572       -4.8706124112       -2.6522295820
 H          1.2270976253       -4.5092463697       -1.2366623549
 H         -0.4940532334       -4.8789705233       -1.0238217626
 H          2.0536940695        0.2943794597       -1.8145759461
 H          3.2235066283        2.4096607075       -1.3986914171
 H          5.0124568693        3.7291119763       -2.2354827346
