  22
        -36.13756243
 C         -2.9371758366        0.2929551112        1.2210342232
 C         -1.7671281029        0.8454176697        0.4214454536
 O         -2.1558685101        1.5757373427       -0.6962555198
 N         -0.8613914949       -0.2545050488        0.0252368998
 N         -1.4489799039       -1.3129796955       -0.4343429466
 O         -0.7514155310       -2.2503692669       -0.8640617850
 C          0.5406203452       -0.0270906632        0.0618357494
 C          1.3916440994       -0.9966240814        0.5779848188
 C          2.7550743118       -0.7613236423        0.6019054531
 C          3.2670906058        0.4303255762        0.1167739410
 C          2.4136194109        1.3933048226       -0.3983765239
 C          1.0496856794        1.1705527365       -0.4303462599
 H         -3.5957913179        1.1137675188        1.4890064654
 H         -3.4824693261       -0.4372917612        0.6308955687
 H         -2.5771271455       -0.1840391293        2.1269058714
 H         -1.1662732276        1.5280203336        1.0316198908
 H          0.9889449220       -1.9236992581        0.9557253970
 H          3.4152569038       -1.5136841158        1.0040317391
 H          4.3309179758        0.6073477744        0.1378294775
 H          2.8102149323        2.3204514541       -0.7811435104
 H          0.3790104422        1.9070806181       -0.8450118167
 H         -2.8465761459        1.0997623739       -1.1821581089
