  19
        -37.19738516
 O          1.8434237083       -2.1699321383       -0.6035824039
 N          2.3698073543       -1.1471179422       -0.1370171588
 N          1.6170298801       -0.1511741730        0.2226831816
 C          2.3695653513        1.0123993910        0.7038514004
 O          2.5401236712        1.9824347632       -0.2718626923
 C          0.2032942244       -0.0719982458        0.1427341748
 C         -0.5819216531       -1.1836674281        0.4362726103
 C         -1.9595958158       -1.0954411731        0.3526532497
 C         -2.5258013565        0.1075154292       -0.0221410067
 F         -3.8812762772        0.1952485020       -0.1076443598
 C         -1.7663964758        1.2263915829       -0.3107954144
 C         -0.3905353380        1.1332026239       -0.2278787463
 H          1.7984937689        1.4725559073        1.5137657871
 H          3.3215443427        0.6228150818        1.0770955496
 H         -0.1243113720       -2.1143331827        0.7291194308
 H         -2.5863495475       -1.9426849871        0.5758486319
 H         -2.2487537787        2.1460679217       -0.5973055521
 H          0.2221481604        1.9896760240       -0.4580256053
 H          3.2167313940        1.7172911290       -0.9119325772
