  42
        -68.94925264
 C          0.2405385522        0.9634892184        2.4592908948
 N          0.2975344422        1.6860705909        1.2091843336
 N         -0.7039608054        2.2445852213        0.6260133720
 O         -1.8323736796        2.1455678377        1.1494367430
 C          1.6067423757        1.9065495050        0.5840731864
 O          2.0804171995        3.1774659831        0.8934930978
 C          1.5350897518        1.6575231472       -0.9253284991
 C          1.3909880461        0.1607913323       -1.2738782005
 O          0.2779870210       -0.4400065543       -0.6330906383
 C         -0.9973845756       -0.1943749851       -1.0563816373
 C         -1.3421459144        0.5605335951       -2.1485430402
 C         -2.6927533883        0.7663572663       -2.4685166744
 C         -3.6871660617        0.2319365329       -1.7035864605
 C         -3.3706843477       -0.5620783216       -0.5810942041
 C         -4.3684599267       -1.1320634267        0.2359552774
 C         -4.0384551983       -1.9000333736        1.3176346010
 C         -2.6925124953       -2.1432348376        1.6262638014
 C         -1.7003338817       -1.6046595292        0.8545798636
 C         -2.0120570817       -0.7967243581       -0.2563531203
 C          2.5838795322       -0.6187293365       -0.8121819934
 C          3.8397381405       -0.6571342340       -1.3314391307
 C          4.7085715898       -1.4982704489       -0.5981853069
 C          4.0969341431       -2.0813845237        0.4619549747
 S          2.4433319808       -1.6215950184        0.5900134049
 H          0.6394680937       -0.0390606887        2.3161616861
 H          0.8236540191        1.4935461606        3.2112662605
 H         -0.8054104969        0.9097040434        2.7611916942
 H          2.3049495093        1.2098405174        1.0586620785
 H          0.6874829230        2.2141101450       -1.3247433805
 H          2.4589817493        2.0234653396       -1.3726015323
 H          1.3022256073        0.0622690107       -2.3658740696
 H         -0.5943108462        1.0150918024       -2.7779234831
 H         -2.9309886254        1.3720301208       -3.3297080195
 H         -4.7251857716        0.4104230956       -1.9403289760
 H         -5.4035017605       -0.9450178549       -0.0109847360
 H         -4.8117544089       -2.3259959549        1.9393735772
 H         -2.4444745963       -2.7575661514        2.4784388196
 H         -0.6619596451       -1.7948683091        1.0786743936
 H          4.1368748148       -0.1111728071       -2.2078992800
 H          5.7388730574       -1.6587786282       -0.8568928179
 H          4.5069632022       -2.7599773591        1.1816215489
 H          1.5632559955        3.8523671700        0.4282542631
