42
NA-030_m3.smi:1
C         -0.50110        2.19210       -0.23229
C         -0.91146        1.13142       -1.27523
C         -2.25855        1.48269       -1.93255
N         -0.96188       -0.23214       -0.71816
N         -1.85961       -0.34118        0.34610
O         -2.83243       -1.00786        0.06358
C          0.34421       -0.82441       -0.39461
O          1.13570       -0.82238       -1.56997
C          0.27492       -2.30709        0.06604
O          1.62109       -2.75525        0.16394
C         -0.45636       -3.27023       -0.89559
O         -0.65826       -4.50460       -0.21358
C         -1.31441       -5.52677       -0.87102
C         -1.79517       -5.41667       -2.20094
C         -2.45638       -6.49501       -2.81806
C         -2.64918       -7.70005       -2.12039
C         -2.17974       -7.82972       -0.79925
C         -2.37515       -9.04035       -0.10218
C         -1.90961       -9.17927        1.21894
C         -1.24759       -8.10796        1.84694
C         -1.05009       -6.89709        1.15497
C         -1.51239       -6.74456       -0.17259
H         -0.45615        3.18084       -0.69002
H         -1.20897        2.25350        0.59493
H          0.48642        1.99439        0.18416
H         -0.17332        1.15245       -2.07743
H         -2.20030        2.44202       -2.44765
H         -2.54275        0.73418       -2.67320
H         -3.06612        1.55448       -1.20321
H          0.84153       -0.23343        0.37620
H         -0.19200       -2.35773        1.05173
H         -1.42712       -2.86009       -1.17374
H          0.11689       -3.41339       -1.81339
H         -1.67142       -4.51236       -2.77815
H         -2.81737       -6.39643       -3.83245
H         -3.15863       -8.52189       -2.60481
H         -2.88308       -9.86875       -0.57683
H         -2.06098      -10.10873        1.75070
H         -0.89002       -8.21409        2.86204
H         -0.53976       -6.08651        1.65579
H          1.75773       -1.53223       -1.40885
H          1.58179       -3.66699        0.43918
