26
NA-029_p0.smi:1
C         -1.59425        1.28514        1.00662
N         -0.50387        0.33547        0.82966
C         -0.39012       -0.04800       -0.57850
C          0.96316       -0.71102       -0.94271
O          1.05197       -0.77535       -2.35410
C          1.16407       -2.09256       -0.33212
C          2.18482       -2.30952        0.61883
C          2.36485       -3.58609        1.18642
C          1.52953       -4.65368        0.80456
C          0.51298       -4.44456       -0.14834
O         -0.30012       -5.47202       -0.52645
C          0.33274       -3.16809       -0.71516
N         -0.65564       -0.75346        1.67704
O          0.05738       -0.66982        2.65407
H         -1.43704        2.18074        0.40431
H         -2.55128        0.84501        0.72209
H         -1.66176        1.59918        2.04913
H         -1.22936       -0.68538       -0.86198
H         -0.48341        0.86196       -1.17339
H          1.77015       -0.05795       -0.60381
H          2.82925       -1.49560        0.92212
H          3.14513       -3.74704        1.91735
H          1.68001       -5.62773        1.24937
H         -0.44501       -3.00635       -1.44857
H          1.03967        0.11920       -2.68154
H         -0.09426       -6.29222       -0.08721
