30
NA-012_m1.smi:1
C         -3.59931       -3.02008       -2.07918
C         -2.09412       -2.73043       -2.11268
C         -1.61797       -1.94558       -0.88207
C         -0.10441       -1.65743       -0.92476
N          0.36358       -0.98713        0.29352
N         -0.22263        0.27095        0.42168
O         -0.93236        0.34647        1.40234
C          1.82991       -0.92435        0.36678
O          2.27648       -2.26663        0.46926
C          2.34602       -0.16326        1.61214
C          3.88151       -0.08104        1.69133
C          4.36760        0.74069        2.89235
H         -3.90801       -3.57896       -2.96334
H         -3.86961       -3.61133       -1.20347
H         -4.17999       -2.09723       -2.05240
H         -1.54825       -3.67270       -2.18087
H         -1.85549       -2.17134       -3.01874
H         -2.17988       -1.01274       -0.81841
H         -1.85377       -2.51078        0.02109
H          0.41266       -2.60825       -1.05499
H          0.14427       -1.04841       -1.79544
H          2.21991       -0.46614       -0.54503
H          1.96438        0.85851        1.60531
H          1.95299       -0.62505        2.51954
H          4.30584       -1.08384        1.75388
H          4.27075        0.36062        0.77288
H          5.45713        0.77886        2.92261
H          4.00270        1.76740        2.84498
H          4.02609        0.30707        3.83305
H          3.07621       -2.34192       -0.04320
