88
NA-040_p0.smi:1
C         -2.99022       -5.32616      -10.27618
C         -2.72129       -6.01260       -8.93542
C         -1.92742       -5.11751       -7.97515
C         -1.80145       -5.74294       -6.57678
C         -1.05115       -4.86667       -5.55600
C         -1.69719       -3.49684       -5.29138
O         -3.05321       -3.66450       -4.88424
C         -4.05070       -3.07931       -5.56836
O         -3.87775       -2.27622       -6.48729
N         -5.27090       -3.53586       -5.02378
C         -6.42347       -3.29658       -5.57773
N         -7.59769       -3.61265       -4.93395
C         -6.64714       -2.66626       -6.91976
C         -7.32393       -1.43311       -7.00602
C         -7.46846       -0.78827       -8.24908
C         -6.95385       -1.36970       -9.42996
N         -7.02022       -0.63941      -10.63552
C         -5.80669       -0.72828      -11.47772
C         -4.47906       -0.66751      -10.75496
N         -4.25463        0.14230       -9.71405
C         -3.01117       -0.26877       -9.27938
C         -2.25555        0.15207       -8.16855
C         -0.99221       -0.42307       -7.88854
C         -0.23027       -0.02901       -6.64841
O          0.26599       -0.92561       -5.95722
N         -0.09428        1.29114       -6.35488
C          0.41486        1.69742       -5.02973
C         -0.46891        1.28227       -3.82438
C         -1.85414        1.92552       -3.81195
O         -2.07700        2.95573       -3.17346
O         -2.74644        1.26332       -4.56841
C         -4.07873        1.74768       -4.65771
C         -4.97535        0.68615       -5.30001
C         -0.18143        2.30659       -7.35231
C         -1.10143        3.35537       -7.13607
C         -1.20458        4.39626       -8.07364
C         -0.36997        4.36660       -9.20064
C          0.53388        3.30368       -9.33782
N          0.63382        2.30664       -8.43494
C         -0.48812       -1.43975       -8.73448
C         -1.22233       -1.86595       -9.86108
C         -2.47856       -1.28762      -10.11890
N         -3.45320       -1.48850      -11.09055
C         -3.38832       -2.41385      -12.21107
N         -8.07063        0.15533      -10.95019
O         -8.03061        0.73713      -12.01396
C         -6.35642       -2.65215       -9.34904
C         -6.19568       -3.29012       -8.10312
H         -3.55226       -5.97809      -10.94551
H         -3.57370       -4.41726      -10.13011
H         -2.06084       -5.05412      -10.77741
H         -3.67605       -6.28304       -8.48179
H         -2.18291       -6.94681       -9.10155
H         -0.93591       -4.92042       -8.38564
H         -2.42569       -4.15050       -7.90657
H         -2.79532       -5.97296       -6.19007
H         -1.28732       -6.70141       -6.65970
H         -0.97981       -5.40943       -4.61276
H         -0.02449       -4.71360       -5.89059
H         -1.15781       -2.98079       -4.49691
H         -1.59995       -2.87257       -6.17975
H         -7.65968       -4.04799       -4.02198
H         -7.69069       -0.95340       -6.10958
H         -7.94086        0.18317       -8.27829
H         -5.87518       -1.65119      -12.05220
H         -5.78654        0.06951      -12.21957
H         -2.67297        0.90448       -7.51655
H          1.41196        1.27407       -4.90199
H          0.56293        2.77820       -5.00222
H         -0.58708        0.19963       -3.78360
H          0.03523        1.56169       -2.89910
H         -4.45960        1.99159       -3.66455
H         -4.09532        2.66506       -5.24756
H         -6.00264        1.04299       -5.37138
H         -4.64440        0.43583       -6.30725
H         -4.98417       -0.22999       -4.70971
H         -1.73667        3.36770       -6.26336
H         -1.90948        5.20228       -7.92895
H         -0.41655        5.14770       -9.94692
H          1.19661        3.25221      -10.18908
H          0.46746       -1.89930       -8.51055
H         -0.83689       -2.64546      -10.50266
H         -2.40367       -2.87754      -12.26969
H         -4.13652       -3.19830      -12.09718
H         -3.57229       -1.87963      -13.14384
H         -5.98037       -3.14633      -10.23273
H         -5.69855       -4.24863       -8.05228
H         -8.51896       -3.46432       -5.32812
