38
NA-023_p0.smi:1
C         -2.16093        0.67477        1.01588
N         -0.94666       -0.08568        0.75992
C         -0.06147        0.65771       -0.13220
C          1.32763        0.00607       -0.22787
O          2.15118        0.82250       -1.05139
C          3.48049        0.33186       -1.21766
C          4.39349        1.40982       -1.78674
C          3.88295        2.40638       -2.64787
C          4.73732        3.39110       -3.18214
C          6.10879        3.38254       -2.86267
C          6.62577        2.38730       -2.01105
C          5.77093        1.40291       -1.47704
C          3.52831       -0.92376       -2.08147
C          4.35924       -2.00548       -1.71829
C          4.40993       -3.16242       -2.52072
C          3.63323       -3.24199       -3.69287
C          2.80764       -2.16315       -4.06404
C          2.75755       -1.00639       -3.26160
N         -1.24105       -1.35459        0.27954
O         -0.88378       -2.22241        1.04692
H         -1.92866        1.64410        1.45866
H         -2.72218        0.84483        0.09574
H         -2.80619        0.13940        1.71370
H         -0.51235        0.73955       -1.12259
H          0.05719        1.67383        0.24679
H          1.76722       -0.08403        0.76693
H          1.25057       -0.99869       -0.64546
H          3.86984        0.08697       -0.22707
H          2.83198        2.41609       -2.90147
H          4.33971        4.15253       -3.83914
H          6.76498        4.13794       -3.27334
H          7.67960        2.37729       -1.76834
H          6.17563        0.63858       -0.82803
H          4.96075       -1.95076       -0.82149
H          5.04645       -3.98938       -2.23689
H          3.67246       -4.13023       -4.30876
H          2.21293       -2.22188       -4.96534
H          2.12458       -0.17833       -3.54927
