89
NA-040_m1.smi:1
C          5.43963       -8.47521        4.36056
C          5.48518       -8.54009        5.89340
C          6.40973       -7.48850        6.52595
C          5.89314       -6.04473        6.39555
C          6.81266       -5.00451        7.05684
C          8.15885       -4.84724        6.33634
O          8.93328       -3.84386        6.97874
C          9.92841       -3.24678        6.30876
O         10.24983       -3.52675        5.15085
N         10.52216       -2.28915        7.15747
C         11.16752       -1.26499        6.68080
N         11.93006       -0.45936        7.49496
C         11.14304       -0.80801        5.25039
C          9.91732       -0.51144        4.61570
C          9.88822       -0.14410        3.25815
C         11.08552       -0.06507        2.51218
N         11.07613        0.21319        1.13336
N         11.83477        1.19352        0.58878
O         11.79988        1.32325       -0.61688
C         10.32267       -0.77352        0.33274
O          8.93056       -0.54394        0.30252
C         10.56756       -2.21291        0.71934
N          9.60960       -2.94365        1.30375
C         10.25702       -4.14385        1.52978
C          9.79608       -5.32510        2.14592
C         10.63928       -6.45450        2.27721
C         10.10222       -7.71025        2.92089
O          8.97578       -8.09122        2.58352
N         10.84972       -8.35775        3.85845
C         10.49060       -9.74762        4.21296
C          9.37890       -9.86555        5.28259
C          9.85115       -9.52848        6.69600
O         10.15758      -10.41328        7.49714
O          9.90331       -8.20606        6.92687
C         10.39930       -7.70717        8.16300
C          9.27370       -7.57271        9.19435
C         12.01628       -7.79923        4.46932
C         11.90838       -6.55533        5.13046
C         13.03169       -5.99120        5.75521
C         14.24054       -6.70106        5.71833
C         14.27093       -7.93925        5.06109
N         13.18964       -8.47745        4.45975
C         11.94907       -6.41026        1.73642
C         12.43393       -5.23649        1.12539
C         11.59186       -4.11475        1.03094
N         11.75032       -2.83760        0.50730
C         12.94304       -2.29565       -0.12527
C         12.31578       -0.29529        3.16705
C         12.34552       -0.66315        4.52698
H          4.82918       -9.28413        3.95801
H          5.00892       -7.53804        4.00823
H          6.43635       -8.56935        3.92826
H          4.47718       -8.44434        6.29963
H          5.83370       -9.53155        6.18668
H          6.53279       -7.72619        7.58348
H          7.39949       -7.57215        6.08043
H          5.75899       -5.78311        5.34557
H          4.90433       -5.97964        6.85157
H          6.30355       -4.03990        7.05715
H          6.97273       -5.25944        8.10447
H          8.71900       -5.78196        6.34352
H          7.97751       -4.58463        5.29259
H         12.04773       -0.58914        8.49221
H          8.99039       -0.58973        5.16607
H          8.93389        0.05910        2.79508
H         10.63875       -0.70313       -0.70808
H          8.78424       -5.36105        2.52384
H         10.17619      -10.28227        3.31515
H         11.37003      -10.29421        4.55518
H          8.52661       -9.23914        5.02360
H          9.00647      -10.88997        5.29857
H         11.20208       -8.33868        8.54704
H         10.84008       -6.72696        7.98020
H          9.65849       -7.17447       10.13311
H          8.49807       -6.89543        8.84180
H          8.81076       -8.53625        9.40764
H         10.96541       -6.03045        5.16021
H         12.96319       -5.03642        6.25671
H         15.13092       -6.30660        6.18809
H         15.18338       -8.51545        5.01767
H         12.59328       -7.28014        1.79228
H         13.43897       -5.20086        0.72888
H         13.67549       -3.08341       -0.30144
H         12.68973       -1.84425       -1.08497
H         13.39471       -1.53937        0.51672
H         13.24588       -0.22453        2.62137
H         13.29311       -0.87001        5.00415
H         12.42007        0.36847        7.17751
H          8.58743       -1.37695        0.63065
