46
NA-036_m0.smi:1
C         -1.13838        3.23448       -0.53481
C         -1.94833        4.15890        0.38354
C         -2.07836        3.60148        1.81164
C         -2.78734        4.55818        2.79252
O         -4.12991        4.72068        2.38104
N         -2.66591        4.11092        4.18074
N         -2.94579        2.83145        4.52265
O         -2.89249        2.55853        5.70394
C         -2.28304        5.14978        5.05584
C         -3.10988        6.28686        5.19028
C         -2.76586        7.34343        6.06072
C         -3.65575        8.54531        6.18901
O         -4.70671        8.62016        5.52103
O         -3.34309        9.47109        6.96472
C         -1.57511        7.24985        6.81329
C         -0.74152        6.11951        6.69009
S          0.76748        5.99954        7.67241
N          0.59040        7.14570        8.92351
O          0.82625        4.68739        8.33719
O          1.90613        6.45747        6.86017
C         -1.07892        5.07084        5.80255
O         -0.24466        3.98280        5.68515
C          0.50989        3.83113        4.54577
C          1.01203        4.92997        3.80861
C          1.77091        4.71385        2.64163
C          2.04239        3.40194        2.20846
C          1.55790        2.30504        2.94620
C          0.79680        2.52128        4.11161
H         -1.05994        3.65328       -1.53867
H         -0.12530        3.09030       -0.15692
H         -1.60600        2.25302       -0.62120
H         -1.46775        5.13772        0.41667
H         -2.93793        4.31446       -0.04756
H         -2.58810        2.63713        1.78607
H         -1.07513        3.39966        2.18357
H         -2.30185        5.53270        2.69537
H         -4.02955        6.34755        4.62516
H         -1.30762        8.05456        7.47984
H          0.52300        8.08451        8.52959
H          0.82259        5.94524        4.12632
H          2.14727        5.55689        2.07893
H          2.62447        3.23709        1.31196
H          1.76695        1.29664        2.61696
H          0.42166        1.67631        4.67181
H         -4.13707        5.35834        1.67355
H         -0.24400        6.93228        9.47170
