21
NA-015_m0.smi:1
C         -0.66104       -0.12657        1.15308
C         -0.05085       -0.09726       -0.26405
C         -0.49733       -1.31626       -1.09167
N          1.42014       -0.00686       -0.25242
N          2.01728       -1.07035        0.42796
O          2.64589       -1.79489       -0.31449
C          1.96100        1.30124        0.14569
C          3.49874        1.34622        0.11031
O          1.50570        2.23847       -0.81470
H         -1.74943       -0.16844        1.09989
H         -0.33453       -0.99601        1.72459
H         -0.40909        0.76516        1.72646
H         -0.44883        0.77793       -0.77824
H         -1.58214       -1.33494       -1.20100
H         -0.07106       -1.28868       -2.09527
H         -0.20121       -2.25835       -0.62892
H          1.60453        1.57668        1.13967
H          3.93810        0.69465        0.86635
H          3.88909        1.03832       -0.86063
H          3.86755        2.35240        0.31242
H          1.18942        3.00425       -0.34230
