42
NA-022_p0.smi:1
C         19.58060       -9.63597       -5.86813
N         20.65398      -10.28308       -5.12845
C         21.86902      -10.32284       -5.93600
C         22.93299      -11.23974       -5.30817
C         24.18788      -11.30628       -6.16292
C         25.42845      -10.88219       -5.83065
C         26.52881      -10.96902       -6.81419
C         26.25572      -10.58195       -8.14903
C         27.24844      -10.62754       -9.14336
C         28.54097      -11.06452       -8.81620
C         28.83045      -11.45388       -7.49725
C         27.84449      -11.41630       -6.48516
C         28.30864      -11.89187       -5.10133
C         27.29459      -11.97391       -3.94760
C         26.60716      -10.65348       -3.65809
C         26.88112       -9.94913       -2.46632
C         26.23056       -8.72850       -2.20259
C         25.30816       -8.20896       -3.13055
C         25.03787       -8.91103       -4.32099
C         25.68195      -10.13937       -4.58735
N         20.85502       -9.66969       -3.89854
O         20.52303      -10.38370       -2.97670
H         19.83277       -8.60144       -6.10608
H         19.37764      -10.16199       -6.80176
H         18.66022       -9.63582       -5.28271
H         21.62751      -10.69782       -6.93204
H         22.25932       -9.31197       -6.06627
H         23.17506      -10.92026       -4.29505
H         22.53932      -12.25265       -5.21521
H         24.04161      -11.77998       -7.12369
H         25.27103      -10.22825       -8.42173
H         27.01754      -10.32356      -10.15511
H         29.31053      -11.10173       -9.57528
H         29.83079      -11.79131       -7.26138
H         28.76039      -12.87704       -5.22453
H         29.12037      -11.23200       -4.79208
H         26.53938      -12.72980       -4.16748
H         27.80312      -12.32333       -3.04826
H         27.58941      -10.34103       -1.74915
H         26.44054       -8.18979       -1.28858
H         24.80979       -7.27024       -2.93155
H         24.33473       -8.50392       -5.03380
