42
NA-030_m0.smi:1
C         -5.38029        1.10687       -1.66870
C         -4.29903        0.02838       -1.86238
C         -4.26442       -0.95683       -0.67720
N         -2.99476        0.65915       -2.13325
N         -2.54887        1.53065       -1.12256
O         -1.92740        0.98532       -0.23316
C         -1.95091       -0.20086       -2.71555
O         -2.46801       -0.77460       -3.90320
C         -0.65977        0.55396       -3.14130
O          0.11830       -0.37319       -3.88956
C         -0.87823        1.79408       -4.03586
O          0.36041        2.49137       -4.13160
C          0.41241        3.65305       -4.87686
C         -0.70737        4.19156       -5.56101
C         -0.59156        5.38023       -6.30567
C          0.64135        6.05123       -6.38086
C          1.76513        5.53335       -5.70884
C          3.00069        6.20947       -5.78632
C          4.12947        5.69958       -5.11757
C          4.02604        4.51227       -4.36929
C          2.79442        3.83353       -4.28893
C          1.65296        4.33477       -4.95619
H         -6.36829        0.65324       -1.58396
H         -5.21652        1.69690       -0.76623
H         -5.41104        1.79224       -2.51662
H         -4.59276       -0.53758       -2.74678
H         -5.22835       -1.45412       -0.56508
H         -3.51897       -1.73890       -0.82032
H         -4.05129       -0.45663        0.26764
H         -1.69010       -0.99823       -2.01756
H         -0.10346        0.84922       -2.24958
H         -1.24866        1.50293       -5.02047
H         -1.61723        2.45683       -3.58431
H         -1.67523        3.71328       -5.53402
H         -1.45389        5.77884       -6.82192
H          0.71846        6.96375       -6.95621
H          3.08932        7.12263       -6.35886
H          5.07538        6.22025       -5.17892
H          4.89293        4.12026       -3.85513
H          2.73640        2.92363       -3.70844
H         -1.67552       -0.94769       -4.41318
H          0.90560        0.09223       -4.15827
