22
NA-016_m0.smi:1
C          5.59411       -2.26457       -5.58401
N          5.93916       -0.85766       -5.88621
C          5.00942        0.10910       -5.25738
C          5.37210        1.55041       -5.66224
N          6.74429        1.87269       -5.26479
N          7.03101        3.20685       -5.54182
O          6.91211        3.91177       -4.56195
C          7.67247        0.94155       -5.91891
O          8.96800        1.26333       -5.43579
C          7.33921       -0.52155       -5.53790
H          5.66634       -2.47006       -4.51536
H          4.57674       -2.49246       -5.90334
H          6.26271       -2.95001       -6.10566
H          3.98659       -0.10898       -5.56785
H          5.03514        0.00459       -4.17116
H          5.24747        1.69050       -6.73752
H          4.68445        2.24269       -5.17422
H          7.63820        1.07879       -7.00234
H          7.49290       -0.67794       -4.46856
H          8.01693       -1.20199       -6.05527
H          5.84986       -0.74939       -6.88535
H          9.57517        1.19186       -6.16815
