30
NA-039_p0.smi:1
O          0.24427        1.21829       -3.37241
N          0.52442        1.32520       -2.19781
N          1.85003        1.00936       -1.95285
C          2.00405       -0.21080       -1.13850
C          3.49021       -0.47854       -0.78153
C          3.97561        0.75769       -0.00199
C          4.09566        1.77676       -1.15031
C          2.64515        2.17716       -1.52892
C          4.71657        0.92002       -2.23199
C          5.52479        1.29429       -3.31596
C          5.97976        0.28915       -4.20161
N          6.76122        0.63793       -5.25508
C          7.17397       -0.35530       -6.07634
C          6.81329       -1.70029       -5.85617
N          6.03529       -2.06888       -4.81202
C          5.61053       -1.08740       -3.97632
C          4.79498       -1.42582       -2.87087
C          4.36186       -0.40123       -2.01593
H          1.41526       -0.12326       -0.22408
H          1.59775       -1.05534       -1.69652
H          3.62616       -1.40617       -0.22395
H          3.31028        1.06821        0.80493
H          4.95766        0.56524        0.43336
H          4.71159        2.63708       -0.88507
H          2.66025        2.90231       -2.34359
H          2.16391        2.66522       -0.67998
H          5.79381        2.32830       -3.47555
H          7.79652       -0.08114       -6.91652
H          7.15346       -2.47941       -6.52393
H          4.51106       -2.45286       -2.69311
