47
NA-034_m1.smi:1
C         -1.16409        1.58778        2.92686
C          0.08538        1.18875        2.11404
C          1.32161        1.81170        2.79638
C         -0.05587        1.58312        0.60551
C          1.20926        1.36466       -0.25277
O          1.50505        2.26898       -1.06201
O          1.81595        0.27563       -0.19707
N         -1.27541        1.01008       -0.04583
N         -1.32945       -0.37775        0.09453
O         -2.31325       -0.74511        0.70124
C         -1.48819        1.38862       -1.45470
O         -1.29981        2.78958       -1.54579
C         -2.87184        0.99279       -1.96161
C         -4.03221        1.55569       -1.38911
C         -5.30917        1.17804       -1.84925
C         -5.45424        0.23518       -2.89077
C         -6.78956       -0.19239       -3.35434
C         -7.10938       -1.56764       -3.27248
C         -8.36778       -2.05144       -3.67235
C         -9.33191       -1.15737       -4.16397
C         -9.02572        0.21229       -4.25661
C         -7.76338        0.71544       -3.86382
C         -7.51389        2.16651       -4.02281
N         -8.17698        3.09557       -3.32086
N         -7.71242        4.24494       -3.82414
N         -6.83609        3.99127       -4.80240
N         -6.70443        2.66973       -4.96433
C         -4.28784       -0.32492       -3.45739
C         -3.00850        0.04983       -3.00145
H         -1.32867        2.66549        2.89748
H         -2.06921        1.10960        2.55425
H         -1.06344        1.29825        3.97347
H          0.19975        0.10593        2.18241
H          1.30329        2.90061        2.73634
H          1.36848        1.54052        3.85178
H          2.25306        1.47001        2.34441
H         -0.19095        2.66526        0.62964
H         -0.74351        0.90659       -2.09226
H         -3.93799        2.27769       -0.58981
H         -6.18706        1.61576       -1.39436
H         -6.37853       -2.26460       -2.88614
H         -8.59259       -3.10672       -3.59782
H        -10.30305       -1.51927       -4.47266
H         -9.76726        0.89715       -4.64298
H         -4.37373       -1.05312       -4.25216
H         -2.13198       -0.39547       -3.45131
H         -0.34762        2.91286       -1.54089
