51
NA-042_m0.smi:1
C          3.14830        1.65464        0.66474
O          1.90949        1.98197        0.06063
C          1.73740        3.20408       -0.46613
O          2.56769        4.11480       -0.41764
C          0.34175        3.34412       -1.11488
C         -0.82023        3.35690       -0.06766
C         -2.16717        3.72232       -0.72368
C         -0.57792        4.31370        1.11932
N          0.07524        2.38693       -2.23005
N         -0.14980        1.07553       -1.81541
O         -1.22482        0.65471       -2.18606
C          0.90302        2.46917       -3.44158
O          0.82105        3.80833       -3.89252
C          2.33557        1.93186       -3.35866
C          3.44810        2.80049       -3.29954
C          4.75833        2.28421       -3.25949
C          4.99473        0.89194       -3.28808
C          6.37747        0.36897       -3.32102
C          7.24149        0.85886       -4.32890
C          8.56607        0.40177       -4.44699
C          9.05100       -0.56232       -3.54974
C          8.20641       -1.05649       -2.53986
C          6.87286       -0.60495       -2.40474
C          6.06927       -1.16197       -1.29456
N          5.88963       -0.51851       -0.13428
N          5.20832       -1.40577        0.60078
N          5.02838       -2.53256       -0.09758
N          5.59157       -2.41391       -1.30521
C          3.87889        0.02867       -3.34669
C          2.56636        0.53989       -3.37986
H          3.11773        0.63315        1.04263
H          3.96155        1.72753       -0.05848
H          3.36403        2.32045        1.50121
H          0.33087        4.34117       -1.55485
H         -0.92001        2.35635        0.35614
H         -2.13208        4.71461       -1.17487
H         -2.44701        3.01624       -1.50534
H         -2.97674        3.72015        0.00698
H         -0.40269        5.33476        0.77798
H         -1.43808        4.33488        1.78957
H          0.27746        4.01236        1.72470
H          0.39480        1.87087       -4.20151
H          3.30347        3.87181       -3.28292
H          5.59318        2.97016       -3.21937
H          6.87900        1.59420       -5.03383
H          9.20663        0.78898       -5.22768
H         10.06772       -0.92123       -3.63238
H          8.58366       -1.79394       -1.84556
H          4.02890       -1.04148       -3.38303
H          1.73385       -0.14730       -3.43865
H          0.80658        3.77917       -4.84419
