41
NA-032_p1.smi:1
C         -2.69799        2.74287        0.18636
N         -2.08674        1.43508        0.37102
C         -0.84071        1.34932       -0.38584
C         -0.30561       -0.09467       -0.44111
C          0.97841       -0.22223       -1.27737
O          0.64156        0.11305       -2.62489
C          1.64198        0.35114       -3.54458
C          3.02872        0.33749       -3.25163
C          3.97459        0.59562       -4.26392
C          3.55866        0.86951       -5.58351
C          4.58486        1.15656       -6.67244
F          4.12303        0.80240       -7.87260
F          4.85945        2.46044       -6.69070
F          5.71650        0.48670       -6.44957
C          2.17891        0.89169       -5.87453
C          1.23264        0.63321       -4.86338
C          1.56406       -1.62464       -1.14932
C          1.09466       -2.67537       -1.96732
C          1.62928       -3.97197       -1.83489
C          2.63127       -4.22626       -0.87852
C          3.09560       -3.18434       -0.05260
C          2.56072       -1.88780       -0.18536
N         -1.91248        1.14936        1.71882
O         -2.62639        0.24034        2.08463
H         -2.90002        2.93403       -0.86826
H         -3.64792        2.79863        0.71961
H         -2.05081        3.53779        0.56019
H         -1.01964        1.69439       -1.40544
H         -0.09461        2.01863        0.04606
H         -0.09418       -0.44054        0.57154
H         -1.07038       -0.76256       -0.83984
H          1.69541        0.50287       -0.88837
H          3.39931        0.12926       -2.25940
H          5.02846        0.58438       -4.02709
H          1.84500        1.10935       -6.87846
H          0.17916        0.65251       -5.10458
H          0.32348       -2.48546       -2.70105
H          1.26909       -4.77206       -2.46699
H          3.04170       -5.22172       -0.77631
H          3.86193       -3.37982        0.68500
H          2.91919       -1.09377        0.45511
