51
NA-017_m0.smi:1
N          1.50816       -1.60263        5.66520
C          0.98231       -1.86017        4.42204
N         -0.28124       -2.08849        4.22120
C         -0.70745       -2.34050        2.90870
N         -2.02959       -2.57609        2.72860
C         -2.43498       -2.82290        1.45807
C         -1.52725       -2.83256        0.37112
C         -1.99642       -3.12432       -1.05601
O         -0.99620       -2.78011       -1.99595
N         -2.57249       -4.45701       -1.26513
N         -3.76267       -4.56305       -1.90000
O         -4.19545       -5.68368       -2.07288
C         -1.84300       -5.51068       -0.67349
C         -0.49860       -5.76738       -1.02516
C          0.21558       -6.81490       -0.41063
C         -0.40242       -7.63545        0.55807
C          0.37622       -8.74150        1.21428
O          1.58947       -8.63643        1.40662
N         -0.32235       -9.84093        1.50991
C          0.24617      -11.09069        2.00948
C         -0.87258      -11.91038        2.70068
C         -1.51749      -11.22787        3.93245
C         -0.56695      -11.02758        5.11243
O          0.18143      -11.96601        5.45087
O         -0.59925       -9.93833        5.71756
C          0.79828      -11.89290        0.81402
O          0.10607      -11.98349       -0.22297
O          1.92489      -12.41923        0.91267
C         -1.74354       -7.37238        0.92007
C         -2.45563       -6.32292        0.30651
N         -0.20103       -2.58890        0.54468
C          0.20346       -2.34739        1.81731
C          1.65464       -2.07518        2.11256
O          2.51357       -2.06085        1.22145
N          1.94068       -1.85003        3.40602
H          2.48223       -1.42159        5.86783
H          0.94673       -1.57575        6.50649
H         -3.48639       -3.01995        1.30617
H         -2.80565       -2.41142       -1.22692
H         -0.26047       -2.51899       -1.44357
H         -0.00282       -5.16787       -1.77474
H          1.24398       -6.99345       -0.69312
H         -1.28285       -9.87270        1.20584
H          1.05441      -10.88504        2.71491
H         -1.65788      -12.14261        1.97995
H         -0.46746      -12.87733        3.00400
H         -1.95290      -10.26925        3.64627
H         -2.35142      -11.83910        4.28059
H         -2.23553       -7.96727        1.67701
H         -3.48003       -6.13926        0.59888
H          2.90468       -1.66565        3.62865
