46
NA-034_p0.smi:1
C         -2.19468       -0.85589       -1.72405
C         -0.90241       -1.06426       -0.90681
C         -1.01635       -2.40463       -0.15058
C         -0.60075        0.15565        0.02440
C          0.61408       -0.05154        0.96455
O          1.74830       -0.23626        0.47524
O          0.42267        0.00081        2.19679
N         -0.54350        1.43606       -0.73588
C         -0.55812        2.62119        0.12443
C         -0.78932        3.92151       -0.63278
C          0.16201        4.96019       -0.57560
C         -0.06584        6.16797       -1.26385
C         -1.24136        6.36180       -2.02278
C         -1.48602        7.64842       -2.70540
C         -1.49791        8.82307       -1.91763
C         -1.74587       10.08448       -2.48769
C         -1.98748       10.18858       -3.86659
C         -1.97299        9.02970       -4.66348
C         -1.72053        7.75376       -4.10747
C         -1.69381        6.59079       -5.02343
N         -0.56211        5.97278       -5.38629
N         -0.98486        5.06052       -6.26944
N         -2.30794        5.16713       -6.43525
N         -2.78492        6.15209       -5.66601
C         -2.18785        5.31456       -2.07417
C         -1.96619        4.10463       -1.38739
N          0.49463        1.47789       -1.66457
O          0.08830        1.54492       -2.80510
H         -3.05994       -0.72772       -1.07270
H         -2.13565        0.02123       -2.36839
H         -2.39368       -1.70936       -2.37315
H         -0.07614       -1.16773       -1.61183
H         -1.79849       -2.36744        0.60867
H         -1.25542       -3.22295       -0.83082
H         -0.08369       -2.67322        0.34621
H         -1.46484        0.22994        0.68705
H         -1.35938        2.52646        0.85893
H          0.37189        2.69125        0.69119
H          1.06998        4.83925       -0.00084
H          0.67139        6.95681       -1.20531
H         -1.32289        8.75461       -0.85284
H         -1.75390       10.96932       -1.86586
H         -2.18035       11.15378       -4.31444
H         -2.15146        9.11374       -5.72616
H         -3.09834        5.44098       -2.64354
H         -2.70380        3.31554       -1.44010
