43
NA-022_m0.smi:1
C        -14.70404      -10.84896      -14.29944
N        -14.44076      -12.07940      -13.55893
N        -14.92124      -12.01649      -12.25763
O        -15.91999      -12.68737      -12.10849
C        -13.06635      -12.58399      -13.63999
O        -12.89195      -12.99799      -14.98169
C        -11.95996      -11.57124      -13.26508
C        -11.97434      -11.19199      -11.79084
C        -12.10121       -9.95511      -11.25926
C        -12.04516       -9.77213       -9.79388
C        -11.04101      -10.46848       -9.07795
C        -10.91599      -10.34491       -7.68319
C        -11.80051       -9.51622       -6.97635
C        -12.80419       -8.81840       -7.66972
C        -12.94587       -8.93203       -9.07145
C        -14.10125       -8.12515       -9.68020
C        -14.40156       -8.24538      -11.18391
C        -13.21768       -7.88999      -12.06260
C        -13.23445       -6.71683      -12.84649
C        -12.13319       -6.39878      -13.66422
C        -11.01278       -7.25054      -13.69680
C        -10.99598       -8.42013      -12.91259
C        -12.10160       -8.74859      -12.09805
H        -14.38917      -10.93635      -15.33940
H        -15.77177      -10.62857      -14.29569
H        -14.18607       -9.99892      -13.85601
H        -12.98642      -13.47201      -13.00865
H        -10.98530      -12.02075      -13.45807
H        -12.01016      -10.69504      -13.90910
H        -11.91390      -12.03853      -11.12147
H        -10.33956      -11.10197       -9.60311
H        -10.13914      -10.88354       -7.15809
H        -11.71050       -9.41518       -5.90327
H        -13.48035       -8.18590       -7.11031
H        -15.00896       -8.38288       -9.13298
H        -13.91033       -7.07475       -9.45631
H        -14.73080       -9.25817      -11.41782
H        -15.24516       -7.60070      -11.43323
H        -14.09027       -6.05599      -12.82496
H        -12.14712       -5.49958      -14.26500
H        -10.16452       -7.00612      -14.32122
H        -10.13116       -9.06859      -12.93622
H        -12.46574      -13.85072      -14.96509
