90
NA-040_m1.smi:1
C         -3.62482      -10.44242       -4.15547
C         -3.07305       -9.09407       -3.67944
C         -3.43519       -8.79940       -2.21825
C         -2.92553       -7.43208       -1.74555
C         -3.31258       -7.13509       -0.28650
C         -2.99600       -5.69787        0.14364
O         -3.81248       -4.84615       -0.63890
C         -3.69946       -3.51760       -0.55966
O         -2.96213       -2.89655        0.20877
N         -4.46531       -2.81264       -1.54744
C         -5.41800       -3.29293       -2.38157
N         -5.80310       -2.53103       -3.41071
C         -6.10355       -4.58943       -2.23525
C         -6.08413       -5.53012       -3.28513
C         -6.77845       -6.75135       -3.15870
C         -7.52707       -7.06026       -1.99551
N         -8.28125       -8.26059       -1.97081
N         -8.77946       -8.79690       -3.11580
O         -9.41030       -9.83027       -3.03665
C         -8.45373       -8.92162       -0.66034
O         -9.41127       -8.31575        0.18220
C         -7.18365       -9.15359        0.11416
N         -6.92052       -8.45874        1.22571
C         -5.70853       -8.99034        1.61859
C         -4.88109       -8.64676        2.70377
C         -3.66244       -9.32968        2.93411
C         -2.75734       -8.92219        4.06956
O         -1.55282       -8.78106        3.83094
N         -3.28982       -8.74814        5.31021
C         -2.50310       -8.04450        6.34325
C         -2.17300       -6.56221        6.02853
C         -3.38896       -5.64224        5.91006
O         -3.70385       -4.87702        6.82369
O         -4.01780       -5.75353        4.72349
C         -5.11007       -4.89898        4.40288
C         -6.44348       -5.46971        4.90266
C         -4.55744       -9.27232        5.71224
C         -4.82820      -10.64702        5.52271
C         -6.06095      -11.17998        5.93386
C         -6.98994      -10.32391        6.54314
C         -6.64304       -8.97749        6.72103
N         -5.45885       -8.46855        6.32565
C         -3.25922      -10.35218        2.04265
C         -4.06976      -10.70814        0.94466
C         -5.27912      -10.02190        0.73484
N         -6.27358      -10.09441       -0.23345
C         -6.31900      -11.00058       -1.37067
C         -7.52955       -6.10509       -0.94594
C         -6.82362       -4.88978       -1.06039
H         -3.33825      -10.63692       -5.18949
H         -3.24471      -11.26340       -3.54643
H         -4.71377      -10.46436       -4.10570
H         -1.98852       -9.08489       -3.79780
H         -3.45974       -8.30158       -4.32199
H         -4.51895       -8.83091       -2.10679
H         -3.03248       -9.58332       -1.57545
H         -1.84120       -7.37958       -1.85251
H         -3.33535       -6.66320       -2.40155
H         -4.38009       -7.30585       -0.15208
H         -2.79946       -7.83234        0.37658
H         -3.21943       -5.55771        1.20236
H         -1.93982       -5.47108       -0.00970
H         -5.36339       -1.65748       -3.65473
H         -5.53585       -5.32109       -4.19365
H         -6.74108       -7.44627       -3.98532
H         -8.85119       -9.92413       -0.81635
H         -5.18856       -7.84337        3.35538
H         -3.01496       -8.09417        7.30552
H         -1.57133       -8.59037        6.49656
H         -1.53319       -6.16624        6.81737
H         -1.59244       -6.48445        5.10951
H         -4.94832       -3.89703        4.80376
H         -5.14786       -4.79246        3.31855
H         -7.26713       -4.80670        4.63830
H         -6.65177       -6.44438        4.46331
H         -6.44549       -5.58277        5.98690
H         -4.10020      -11.29876        5.05978
H         -6.28668      -12.22643        5.78730
H         -7.95048      -10.69253        6.87572
H         -7.32955       -8.29009        7.19296
H         -2.31585      -10.86190        2.20100
H         -3.75672      -11.48646        0.26314
H         -5.38246      -11.55133       -1.45972
H         -7.13317      -11.71516       -1.24584
H         -6.47274      -10.44115       -2.29342
H         -8.09529       -6.25914       -0.04161
H         -6.86220       -4.17605       -0.24899
H         -4.34334       -1.81819       -1.62287
H         -6.55199       -2.86521       -3.99892
H         -8.92289       -8.20235        0.99848
