21
NA-009_p0.smi:1
C         -0.89585        0.63444        0.17007
C          0.35318       -0.25852        0.11261
N          1.59186        0.52113       -0.03174
N          2.22072        1.07116        1.03766
O          1.70165        0.92217        2.12437
C          2.09601        0.61112       -1.35037
C          1.27801        0.49668       -2.50446
C          1.82939        0.59915       -3.79688
C          3.20821        0.82010       -3.96239
C          4.03367        0.94078       -2.83058
C          3.48077        0.83888       -1.53910
H         -1.79647        0.02797        0.26826
H         -0.86057        1.30798        1.02671
H         -1.00631        1.24530       -0.72544
H          0.40769       -0.85256        1.02604
H          0.25448       -1.00132       -0.67997
H          0.21293        0.33925       -2.42937
H          1.18929        0.51033       -4.66368
H          3.63116        0.89881       -4.95491
H          5.09451        1.11143       -2.95078
H          4.14347        0.93129       -0.69039
