29
NA-037_m1.smi:1
C         -1.16777        1.06870        2.53323
C         -2.67718        0.94942        2.81591
C         -2.93328        1.05968        4.34011
N         -4.11587        0.34018        4.81205
N         -4.01134       -1.04274        4.65299
O         -3.54166       -1.58257        5.63232
C         -5.38731        0.91344        4.37132
O         -6.39403        0.28668        5.14819
C         -5.66446        0.74220        2.86284
C         -4.96502        1.79873        2.01983
C         -5.75778        2.68549        1.25716
C         -5.16076        3.69613        0.48390
C         -3.76321        3.82980        0.47037
Cl        -3.02361        5.07202       -0.47178
C         -2.96678        2.94960        1.22532
C         -3.55060        1.91901        2.00502
H         -0.94813        0.93662        1.47321
H         -0.76995        2.03311        2.85075
H         -0.61082        0.29939        3.06905
H         -2.94374       -0.05325        2.47893
H         -2.08499        0.63733        4.88041
H         -2.98318        2.10664        4.64196
H         -5.40695        1.97494        4.62713
H         -5.39527       -0.25309        2.50795
H         -6.73822        0.82617        2.68988
H         -6.83596        2.60197        1.26225
H         -5.77499        4.37090       -0.09497
H         -1.89781        3.09059        1.18430
H         -7.01080        0.96360        5.41445
