40
NA-021_p0.smi:1
C         -2.27846        1.62178       -2.75657
C         -2.08683        2.24499       -1.36490
C         -1.80131        1.20431       -0.25441
C         -1.80032        1.83594        1.16217
O         -3.08649        2.32765        1.49529
N         -0.53867        0.51032       -0.54262
C         -0.40690       -0.76299        0.16268
C          0.69003       -1.63762       -0.47597
N          0.74274       -2.95546        0.15378
N          1.14368       -2.90458        1.48732
O          0.24817       -3.21225        2.24471
C          1.46524       -3.95185       -0.64895
C          1.07091       -5.37611       -0.18841
C         -0.41508       -5.70366       -0.40374
C          2.99867       -3.72492       -0.60833
O          3.65412       -4.56486       -1.54228
N          0.59124        1.31708       -0.42277
O          1.17188        1.44840       -1.47907
H         -2.52872        2.38625       -3.49264
H         -1.37296        1.12087       -3.10055
H         -3.08565        0.88863       -2.75327
H         -1.29605        2.99550       -1.40264
H         -2.99810        2.79210       -1.12302
H         -2.60079        0.46227       -0.29423
H         -1.51975        1.10301        1.91913
H         -1.07895        2.65218        1.22984
H         -0.19483       -0.58486        1.21740
H         -1.35344       -1.30344        0.11448
H          0.46773       -1.75237       -1.53793
H          1.66336       -1.15115       -0.40470
H          1.13472       -3.84465       -1.68353
H          1.65676       -6.10626       -0.74786
H          1.33618       -5.53029        0.85824
H         -0.63109       -6.73247       -0.11451
H         -1.05900       -5.05436        0.19034
H         -0.69702       -5.58773       -1.45068
H          3.25172       -2.69298       -0.85417
H          3.39945       -3.91961        0.38803
H         -3.30088        3.02117        0.87845
H          4.59005       -4.39265       -1.48105
