41
NA-030_p0.smi:1
C          1.66553        1.26065       -2.18066
C          0.54075        1.68105       -3.14123
C         -0.38953        2.73295       -2.50509
N         -0.18290        0.49493       -3.61117
C         -0.99916        0.76031       -4.79594
C         -1.44118       -0.53470       -5.51139
O         -2.32658       -0.16048       -6.55165
C         -0.26936       -1.29598       -6.15675
O         -0.74801       -2.57077       -6.57248
C          0.13732       -3.45138       -7.16256
C          1.50336       -3.14670       -7.39294
C          2.35716       -4.08642       -8.00027
C          1.86387       -5.34443       -8.38773
C          0.51099       -5.66676       -8.16751
C          0.01957       -6.93027       -8.55713
C         -1.33120       -7.26172       -8.34044
C         -2.19449       -6.33075       -7.73350
C         -1.70852       -5.06771       -7.34290
C         -0.35394       -4.72205       -7.55508
N         -0.88198       -0.17378       -2.60852
O         -0.47791       -1.30614       -2.45099
H          2.28090        2.11750       -1.90467
H          1.27629        0.82866       -1.25804
H          2.32399        0.52374       -2.64226
H          1.02378        2.13726       -4.00716
H          0.18024        3.60744       -2.18941
H         -1.14621        3.08626       -3.20549
H         -0.90260        2.34756       -1.62342
H         -1.87524        1.33949       -4.50122
H         -0.43612        1.37753       -5.49756
H         -1.97540       -1.18922       -4.82056
H          0.14788       -0.73078       -6.99239
H          0.52311       -1.43988       -5.42033
H          1.92911       -2.19441       -7.11348
H          3.39620       -3.83992       -8.16957
H          2.52925       -6.05850       -8.85357
H          0.67586       -7.65196       -9.02397
H         -1.70486       -8.23132       -8.64010
H         -3.23226       -6.58506       -7.56638
H         -2.38800       -4.36752       -6.87777
H         -2.52985       -0.95754       -7.03467
