38
NA-041_p0.smi:1
C         -1.87006        1.49093        0.95455
N         -1.29577        2.63840        0.26390
N         -1.35906        2.50325       -1.11868
O         -2.25149        3.16737       -1.60088
C          0.03232        3.01958        0.76162
C          1.07050        1.89159        0.53547
C          2.51168        2.37863        0.70978
C          2.85249        3.52313       -0.25542
C          3.12666        3.01148       -1.66956
C          4.43161        2.60403       -2.02073
C          4.70293        2.12231       -3.31625
C          3.67388        2.03999       -4.27409
Cl         4.03681        1.44277       -5.85558
C          2.36463        2.44323       -3.93094
Cl         1.07459        2.35247       -5.07823
C          2.09726        2.92590       -2.63528
C          1.80412        4.63170       -0.21923
C          2.17013        5.92036       -0.66602
C          1.24141        6.97660       -0.64528
C         -0.06250        6.75160       -0.17077
C         -0.43556        5.47046        0.27611
C          0.48261        4.39512        0.24693
H         -1.85372        1.63864        2.03481
H         -2.90956        1.35298        0.65518
H         -1.33163        0.57124        0.72399
H         -0.06242        3.15399        1.84053
H          0.88127        1.06241        1.21744
H          0.97705        1.47880       -0.46883
H          2.62678        2.73614        1.73391
H          3.21894        1.55649        0.59534
H          3.78299        3.96979        0.10054
H          5.23221        2.65701       -1.29566
H          5.70459        1.81277       -3.57675
H          1.09088        3.22986       -2.38868
H          3.17255        6.10126       -1.02983
H          1.53092        7.95993       -0.98999
H         -0.77787        7.56232       -0.14788
H         -1.44111        5.31417        0.64243
