43
NA-022_m1.smi:1
C          5.59354       -5.32929        4.87675
N          5.73593       -5.86464        3.52589
N          7.07047       -6.03245        3.17941
O          7.40921       -5.27377        2.29646
C          4.93568       -7.05592        3.23802
O          3.58107       -6.64697        3.29945
C          5.19928       -8.23699        4.19527
C          4.46983       -9.50024        3.76308
C          5.02313      -10.66097        3.34404
C          4.16079      -11.77907        2.90716
C          3.05520      -11.47714        2.07505
C          2.19125      -12.48397        1.61009
C          2.42078      -13.81975        1.97303
C          3.51188      -14.13830        2.79953
C          4.38973      -13.13904        3.27775
C          5.52060      -13.64128        4.18651
C          6.48056      -12.62851        4.83420
C          7.19894      -11.75352        3.82510
C          8.58549      -11.90040        3.60757
C          9.24435      -11.07772        2.67382
C          8.51786      -10.11083        1.95329
C          7.13366       -9.96752        2.16839
C          6.46950      -10.78336        3.11077
H          6.00454       -6.01149        5.62130
H          6.12551       -4.38136        4.96249
H          4.54829       -5.14215        5.12348
H          5.14888       -7.35945        2.21064
H          6.26945       -8.42689        4.27240
H          4.86947       -7.99812        5.20671
H          3.39410       -9.43532        3.84613
H          2.86628      -10.45709        1.77068
H          1.35557      -12.23020        0.97243
H          1.76112      -14.60026        1.61874
H          3.67367      -15.17228        3.07323
H          5.06692      -14.23310        4.98256
H          6.11473      -14.34311        3.59965
H          5.93654      -11.99401        5.53527
H          7.21431      -13.16552        5.43646
H          9.15010      -12.64270        4.15515
H         10.30720      -11.19048        2.50836
H          9.02107       -9.48138        1.23231
H          6.57997       -9.23086        1.60398
H          3.13997       -7.00249        2.53340
