21
NA-016_m1.smi:1
C          1.77892       -2.08493        3.46159
N          1.50669       -0.73826        3.95577
C          1.08073        0.15226        2.87297
C          0.81375        1.59011        3.36900
N         -0.14121        1.60665        4.48528
N         -1.44722        1.41258        4.05314
O         -2.10797        2.42572        4.13621
C          0.22260        0.67042        5.55384
O          1.43866        1.14107        6.10002
C          0.48305       -0.74912        5.00485
H          0.88866       -2.53742        3.02060
H          2.55964       -2.07208        2.69920
H          2.12105       -2.73671        4.26721
H          1.84583        0.18480        2.09497
H          0.18135       -0.24033        2.39346
H          1.75141        2.04260        3.69363
H          0.44394        2.21543        2.55504
H         -0.54742        0.66368        6.32812
H         -0.44957       -1.16732        4.61952
H          0.78786       -1.40525        5.82266
H          2.10573        0.60678        5.67259
