25
NA-031_p0.smi:1
C          0.98638       -4.64051        0.47346
N          0.66450       -3.26165        0.12935
C         -0.50485       -2.66797        0.39023
O         -1.43930       -3.26900        0.92460
C         -0.64532       -1.26160       -0.06785
C          0.17429       -0.14186        0.01128
N          1.44947       -0.01273        0.61626
C          2.22456        1.14832        0.16885
N          1.88514       -0.82674        1.60806
O          2.96883       -0.58063        2.09577
N         -0.46598        0.93966       -0.60138
C         -1.63432        0.45286       -0.99450
N         -1.81995       -0.84029       -0.70856
C         -3.01061       -1.60671       -1.04298
H          2.00450       -4.87910        0.16514
H          0.91231       -4.80155        1.54994
H          0.30957       -5.33546       -0.02572
H          2.08535        1.33194       -0.89717
H          1.91316        2.04139        0.71093
H          3.29533        1.01526        0.32242
H         -2.37381        1.05302       -1.50657
H         -3.66666       -1.02552       -1.69198
H         -2.73305       -2.52323       -1.56410
H         -3.55589       -1.85963       -0.13349
H          1.37583       -2.72199       -0.34713
