22
NA-009_m1.smi:1
C         -0.23272        1.46301       -0.02136
C          0.55117        0.15610       -0.19548
O         -0.27180       -0.91578        0.21870
N          1.83379        0.21219        0.50468
N          1.89248        0.07196        1.85001
O          2.99146        0.15179        2.35894
C          2.89151        0.58265       -0.34702
C          3.30296       -0.26557       -1.39986
C          4.35614        0.11753       -2.25357
C          5.00633        1.35166       -2.06170
C          4.60300        2.20154       -1.01407
C          3.55012        1.81795       -0.16040
H          0.34235        2.31551       -0.38471
H         -1.16753        1.44301       -0.58244
H         -0.47627        1.65110        1.02492
H          0.71846        0.01309       -1.26528
H          2.81673       -1.21879       -1.55405
H          4.66574       -0.53789       -3.05578
H          5.81505        1.64581       -2.71721
H          5.10072        3.14952       -0.86406
H          3.24660        2.47838        0.63979
H         -0.73598       -1.23373       -0.55150
