15
NA-014_m0.smi:1
C         -0.91174       -1.04273        0.29763
C         -0.12166        0.00668       -0.50224
O         -0.26141        1.24131        0.17802
N          1.31441       -0.28488       -0.53966
C          2.06472        0.71127       -1.29923
N          1.58369       -1.55974       -1.02620
O          2.29964       -2.19042       -0.27770
H         -0.89396       -2.01795       -0.19002
H         -0.51067       -1.16836        1.30424
H         -1.96019       -0.75772        0.39111
H         -0.51657        0.08915       -1.51751
H          1.97100        1.70647       -0.86428
H          3.12633        0.46173       -1.30677
H          1.71983        0.75666       -2.33307
H         -0.85743        1.78409       -0.33170
