43
NA-033_m1.smi:1
O          0.77982        1.89514        1.31465
N         -0.27807        1.90502        1.90674
N         -1.34399        2.18836        1.06208
C         -1.89745        3.52826        1.30009
C         -2.70684        3.58107        2.61329
N         -3.74016        2.54473        2.61110
C         -4.78935        2.63440        3.55203
C         -4.64197        3.33477        4.77268
C         -5.70395        3.42132        5.70998
C         -6.93470        2.78003        5.41632
C         -7.08454        2.08206        4.19776
C         -6.02827        2.01159        3.27553
F         -6.21581        1.34904        2.10716
C         -8.07597        2.82692        6.38435
O         -9.16496        2.32500        6.08309
C         -7.83020        3.50619        7.69289
C         -8.87049        3.53504        8.87281
O         -8.73987        4.44551        9.72195
O         -9.72196        2.62386        8.95748
C         -6.61892        4.08477        7.86501
N         -5.58997        4.11883        6.93239
C         -4.32947        4.80643        7.20981
C         -3.97272        6.06377        6.44487
C         -4.32881        6.15193        7.90668
C         -3.20022        1.19733        2.41646
C         -2.37562        1.14585        1.11180
O         -3.25722        1.38917        0.03388
H         -1.08949        4.26095        1.32104
H         -2.53706        3.81050        0.46313
H         -2.04058        3.44637        3.46754
H         -3.16193        4.56795        2.71729
H         -3.69512        3.79792        4.99472
H         -8.01635        1.59250        3.95618
H         -6.37148        4.56800        8.80096
H         -3.53065        4.10869        7.45839
H         -2.92841        6.20941        6.17491
H         -4.69684        6.44841        5.72882
H         -5.28214        6.61561        8.15358
H         -3.51953        6.35534        8.60547
H         -2.56655        0.93782        3.26691
H         -3.98748        0.44250        2.38804
H         -1.91564        0.16423        0.98063
H         -4.01295        1.80893        0.43979
