22
NA-016_m1.smi:1
C         -0.74022        0.55044        0.83193
N          0.56475        0.78161        1.49029
C          1.59207        1.30454        0.55991
C          2.90566        1.59308        1.31086
N          3.41272        0.38023        1.95628
N          4.65036        0.62342        2.54622
O          5.56974        0.26037        1.84326
C          2.41352       -0.11794        2.91012
O          2.93638       -1.32575        3.44230
C          1.07463       -0.41856        2.19322
H         -0.66258       -0.20896        0.05300
H         -1.48712        0.21868        1.55374
H         -1.11197        1.46723        0.37337
H          1.76788        0.59063       -0.24686
H          1.23194        2.22193        0.09209
H          3.64919        1.96105        0.60233
H          2.76010        2.38217        2.05081
H          2.26983        0.60773        3.71422
H          0.33444       -0.75762        2.91927
H          1.20448       -1.23005        1.47475
H          0.40993        1.49040        2.19145
H          2.72471       -1.34689        4.37228
