42
NA-032_m3.smi:1
C         -3.11012        4.16842       -3.14204
N         -2.94380        2.77219       -2.74810
N         -2.44719        1.99939       -3.78990
O         -3.27343        1.21697       -4.20837
C         -2.21529        2.55452       -1.49616
O         -3.03502        3.09724       -0.47489
C         -0.80475        3.19495       -1.48056
C          0.09273        2.75866       -0.30496
O          1.31386        3.48875       -0.44212
C          2.22037        3.51919        0.59743
C          2.00481        2.94484        1.87508
C          2.99546        3.03237        2.87365
C          4.21345        3.69763        2.62144
C          5.28752        3.78395        3.69860
F          6.12256        2.75265        3.57638
F          5.98710        4.91369        3.58339
F          4.74865        3.75265        4.91835
C          4.43006        4.26779        1.35003
C          3.44049        4.18042        0.35116
C          0.31888        1.24912       -0.29488
C          1.19803        0.65665       -1.22688
C          1.39329       -0.73834       -1.23205
C          0.70726       -1.54875       -0.30701
C         -0.17459       -0.96375        0.62213
C         -0.36995        0.43130        0.62696
H         -3.55919        4.75790       -2.34246
H         -2.15637        4.62408       -3.40934
H         -3.76769        4.23768       -4.00908
H         -2.14540        1.47585       -1.34244
H         -0.28649        2.94670       -2.40756
H         -0.89078        4.28192       -1.46992
H         -0.40681        3.06338        0.61596
H          1.09020        2.42701        2.11988
H          2.82022        2.58436        3.84081
H          5.36129        4.77353        1.14066
H          3.62307        4.62476       -0.61716
H          1.72606        1.27533       -1.93937
H          2.06973       -1.18675       -1.94677
H          0.85697       -2.61991       -0.31067
H         -0.70252       -1.58599        1.33183
H         -1.05005        0.87142        1.34300
H         -3.22565        2.39956        0.14557
