31
NA-024_p0.smi:1
O         13.10878       -7.66493       -0.23631
N         12.15157       -7.63743       -0.97952
N         11.66394       -8.90871       -1.23892
C         11.73983       -9.23581       -2.66037
C         11.31047      -10.69878       -2.88919
N          9.92638      -10.94102       -2.39923
C          9.45966      -12.33955       -2.62977
C          7.99661      -12.58804       -2.22631
C          7.57581      -13.85580       -2.97918
C          8.52282      -13.97569       -4.18162
C          9.46572      -12.76919       -4.10629
C          9.82169      -10.51802       -0.97635
C         10.28278       -9.05894       -0.78811
H         11.11918       -8.55304       -3.24354
H         12.76609       -9.10287       -3.00630
H         11.38021      -10.91236       -3.95555
H         12.00547      -11.37553       -2.38917
H         10.09731      -13.02390       -2.06579
H          7.86723      -12.70053       -1.14911
H          7.36884      -11.75567       -2.54867
H          7.68302      -14.73096       -2.33609
H          6.52980      -13.80773       -3.28574
H          9.09202      -14.90419       -4.11147
H          7.98149      -14.00063       -5.12857
H          9.07328      -11.96823       -4.73500
H         10.46302      -13.01709       -4.47192
H          8.79169      -10.59829       -0.62959
H         10.41565      -11.18245       -0.34648
H         10.21772       -8.79367        0.26828
H          9.62778       -8.37192       -1.32696
H          9.31910      -10.33433       -2.92933
