41
NA-032_p0.smi:1
C          1.09104        1.97880       -0.68066
N          1.35556        0.64850       -0.15321
C          0.13281        0.07309        0.40003
C          0.42061       -1.21083        1.20147
C         -0.83636       -1.78520        1.87488
O         -1.73495       -2.16745        0.83182
C         -3.05023       -2.45809        1.12995
C         -3.62379       -2.37107        2.42320
C         -4.98193       -2.68899        2.62455
C         -5.79349       -3.09273        1.54383
C         -7.25928       -3.44434        1.76553
F         -7.76756       -2.75617        2.78884
F         -7.98521       -3.17044        0.68061
F         -7.36826       -4.74536        2.03243
C         -5.22305       -3.18346        0.25736
C         -3.86541       -2.86636        0.05518
C         -0.46913       -2.94756        2.79144
C         -0.23548       -2.71708        4.16405
C          0.11872       -3.78402        5.01310
C          0.24799       -5.08611        4.49231
C          0.02627       -5.32031        3.12146
C         -0.32781       -4.25315        2.27273
N          1.93829       -0.16556       -1.11565
O          3.08531       -0.44378       -0.83864
H          0.69939        2.63626        0.09647
H          2.00953        2.42795       -1.06076
H          0.36676        1.94358       -1.49594
H         -0.33635        0.80065        1.06424
H         -0.58030       -0.12661       -0.40179
H          0.86629       -1.97353        0.56181
H          1.16083       -0.98422        1.97032
H         -1.28433       -0.98722        2.46960
H         -3.04599       -2.06834        3.28328
H         -5.40471       -2.62464        3.61649
H         -5.83058       -3.49943       -0.57801
H         -3.44516       -2.93988       -0.93798
H         -0.32856       -1.71924        4.57012
H          0.29319       -3.60266        6.06487
H          0.52042       -5.90512        5.14408
H          0.12908       -6.31899        2.71959
H         -0.49410       -4.43727        1.22029
