22
NA-009_m0.smi:1
C          0.36228       -1.26601        0.40181
C          0.08448        0.24238        0.42222
O         -0.90389        0.50104        1.39888
N          1.31682        1.00361        0.62293
N          1.89313        1.07370        1.84601
O          2.92454        1.70831        1.92704
C          1.86069        1.46972       -0.58878
C          3.09759        0.96657       -1.04864
C          3.64499        1.42044       -2.26474
C          2.95927        2.38234       -3.03096
C          1.72626        2.89023       -2.57890
C          1.17900        2.43586       -1.36282
H          1.07896       -1.52103       -0.37973
H          0.77135       -1.61401        1.35099
H         -0.54675       -1.83444        0.20274
H         -0.36294        0.50657       -0.53851
H          3.63092        0.22651       -0.46853
H          4.59218        1.02911       -2.60907
H          3.37961        2.73146       -3.96458
H          1.19905        3.63079       -3.16425
H          0.23484        2.83897       -1.02388
H         -1.75111        0.47688        0.96135
