31
NA-039_m2.smi:1
O          4.67560        6.73233        1.42658
N          3.75098        6.17846        1.98289
N          3.45999        4.94470        1.41224
C          4.15730        3.84581        2.11026
C          3.71855        2.44875        1.60024
C          2.19846        2.35616        1.83167
C          1.69162        3.28575        0.71378
C          2.59643        2.86626       -0.42908
C          2.36668        2.90042       -1.81436
C          3.38465        2.44108       -2.68360
N          3.17558        2.47320       -4.02411
C          4.17535        2.02457       -4.81822
C          5.38793        1.54125       -4.28566
N          5.61567        1.50006       -2.95231
C          4.62517        1.94581       -2.13865
C          4.81603        1.91802       -0.73729
C          3.78435        2.38241        0.09202
C          2.01465        4.73062        1.19667
O          1.61342        5.66599        0.21144
H          5.23140        3.97100        1.96883
H          3.97094        3.91573        3.18303
H          4.26577        1.63760        2.08269
H          1.85307        1.33597        1.65668
H          1.88010        2.64600        2.83408
H          0.63254        3.13340        0.50014
H          1.43218        3.26340       -2.21716
H          4.01252        2.04894       -5.88666
H          6.17468        1.18707       -4.93701
H          5.73847        1.54383       -0.31751
H          1.47521        4.93718        2.12337
H          1.57635        5.19149       -0.61367
