42
NA-033_p0.smi:1
O          2.85748       -8.66178        6.00425
N          1.80999       -8.43829        5.43646
N          1.83911       -8.85757        4.11664
C          0.82557       -9.88010        3.85389
C          0.97436      -10.41586        2.41543
N          0.88118       -9.32153        1.44720
C         -0.38815       -9.06646        0.87469
C         -1.00802       -7.79766        0.97310
C         -2.27952       -7.54143        0.39808
C         -2.94648       -8.58745       -0.28827
C         -2.32939       -9.85234       -0.39778
C         -1.06720      -10.09004        0.16994
F         -0.50304      -11.31301        0.01194
C         -4.29777       -8.37021       -0.89524
O         -4.83444       -9.27049       -1.55095
C         -4.93441       -7.03566       -0.67682
C         -6.39767       -6.67923       -1.13200
O         -7.23692       -7.59661       -1.26029
O         -6.66828       -5.46503       -1.27180
C         -4.20646       -6.11172       -0.00744
N         -2.91737       -6.28427        0.48084
C         -2.21288       -5.20659        1.17450
C         -1.00474       -4.55869        0.53098
C         -2.29129       -3.78417        0.65833
C          1.80613       -8.22269        1.73234
C          1.66478       -7.73674        3.19216
H          0.94749      -10.70154        4.56179
H         -0.17390       -9.47054        4.01119
H          1.93962      -10.91179        2.30013
H          0.21809      -11.18182        2.24348
H         -0.50417       -7.01282        1.50956
H         -2.81926      -10.65770       -0.92480
H         -4.62354       -5.13631        0.20554
H         -2.20714       -5.35241        2.25408
H         -0.18128       -4.27142        1.18222
H         -0.71678       -4.89138       -0.46472
H         -2.84081       -3.58891       -0.26075
H         -2.32018       -2.98339        1.39491
H          2.82493       -8.57653        1.56532
H          1.66480       -7.39531        1.03507
H          0.69519       -7.26686        3.36122
H          2.42169       -6.97782        3.39660
