46
NA-036_m1.smi:1
C         -1.72884       -4.24061       -1.29685
C         -0.92130       -3.07816       -1.88886
C         -1.21981       -1.73977       -1.19124
C         -0.51265       -0.52941       -1.83542
O          0.88379       -0.67783       -1.67365
N         -1.01574        0.74226       -1.31425
N         -1.12929        0.94752        0.01888
O         -1.48382        2.05308        0.37215
C         -1.30331        1.67330       -2.33508
C         -0.26975        2.10383       -3.19594
C         -0.51523        3.03968       -4.22369
C          0.59524        3.48441       -5.13031
O          0.36698        4.31557       -6.03234
O          1.74538        3.02404       -4.98366
C         -1.81971        3.55567       -4.38205
C         -2.86035        3.13569       -3.52861
S         -4.51961        3.81715       -3.72586
N         -4.32499        5.22844       -4.66433
O         -5.32321        2.89365       -4.54279
O         -5.03033        4.27098       -2.42191
C         -2.61569        2.18341       -2.51146
O         -3.64768        1.77507       -1.69796
C         -4.17106        0.51325       -1.85409
C         -4.23201       -0.14021       -3.10801
C         -4.76988       -1.43851       -3.20581
C         -5.25921       -2.08875       -2.05682
C         -5.21453       -1.43755       -0.80938
C         -4.67432       -0.14035       -0.71128
H         -1.49983       -5.17543       -1.80964
H         -1.50501       -4.38011       -0.23862
H         -2.80139       -4.06593       -1.39177
H          0.14240       -3.30742       -1.81600
H         -1.14754       -2.99310       -2.95269
H         -2.29572       -1.57690       -1.22863
H         -0.96398       -1.81040       -0.13292
H         -0.71781       -0.57329       -2.90818
H          0.73167        1.71936       -3.06114
H         -2.01271        4.27090       -5.16600
H         -3.69653        5.87632       -4.18729
H         -3.86937        0.34239       -4.00423
H         -4.80886       -1.93553       -4.16523
H         -5.67134       -3.08580       -2.13283
H         -5.59173       -1.93381        0.07401
H         -4.63654        0.35379        0.24942
H          1.18726       -1.28036       -2.34602
H         -3.95229        4.98779       -5.58317
