20
NA-015_p0.smi:1
C         -2.03536       -0.76809       -1.17960
C         -0.53030       -0.48738       -1.30491
N          0.00427        0.11036       -0.08271
N         -0.50526        1.38450        0.16362
O         -1.17514        1.42059        1.17386
C          1.46802        0.03436       -0.01084
C          1.93830        0.30079        1.42900
C          2.16383        0.97010       -1.01964
H         -2.40721       -1.26998       -2.07322
H         -2.24792       -1.41400       -0.32696
H         -2.61190        0.14958       -1.05909
H         -0.01929       -1.43080       -1.50244
H         -0.33730        0.16190       -2.15998
H          1.75588       -0.99130       -0.24829
H          3.01303        0.14165        1.52219
H          1.73209        1.32417        1.74457
H          1.44859       -0.37116        2.13493
H          3.24738        0.86701       -0.95376
H          1.88755        0.73951       -2.04847
H          1.92833        2.01895       -0.83639
