27
NA-029_m1.smi:1
C         -0.76998        2.88390        1.39178
N         -0.67697        2.65538       -0.04851
N         -1.44429        3.59097       -0.73371
O         -0.79300        4.55424       -1.07814
C         -1.03854        1.28364       -0.42111
O         -0.15709        0.40579        0.25876
C         -0.90008        0.95966       -1.94180
O         -1.06022       -0.44547       -2.07873
C          0.40000        1.43636       -2.59436
C          0.39783        2.59098       -3.40853
C          1.58554        3.03432       -4.02205
C          2.78569        2.32283       -3.83473
C          2.79607        1.16384       -3.03450
O          3.95158        0.46297       -2.85145
C          1.60817        0.72226       -2.42006
H         -1.78208        2.69863        1.75394
H         -0.08643        2.24136        1.94718
H         -0.50740        3.91486        1.63167
H         -2.05941        1.07289       -0.09514
H         -1.73012        1.43070       -2.47300
H         -0.51677        3.14708       -3.56370
H          1.57593        3.92207       -4.63917
H          3.68951        2.67475       -4.31282
H          1.62334       -0.17146       -1.81283
H         -0.00018       -0.28699       -0.38159
H         -1.94189       -0.65738       -1.78564
H          4.69536        0.84280       -3.31031
