46
NA-028_m0.smi:1
C         -2.32491       -2.27294       -1.34382
C         -0.97183       -2.87405       -0.96145
O         -1.17730       -4.22391       -0.56982
C         -0.01057       -4.87931       -0.17968
C         -0.29347       -6.39450       -0.09759
N         -0.30889       -7.03782       -1.41568
N         -1.33828       -6.57292       -2.22632
O         -0.91870       -6.03731       -3.22985
C         -0.26527       -8.50167       -1.38377
O          1.00855       -8.84893       -0.87262
C         -1.40077       -9.16479       -0.55437
O         -0.99649       -9.20402        0.78223
C         -2.04657       -9.50355        1.69019
C         -1.47030       -9.49156        3.10630
O         -1.72683      -10.42849       -1.05955
C         -0.72594      -11.43882       -0.98801
C         -1.36203      -12.76744       -1.39888
O          0.45720       -4.41036        1.05292
C         -0.44311       -4.50025        2.15439
C          0.20947       -3.82392        3.36077
H         -2.21442       -1.23369       -1.65448
H         -2.77901       -2.82106       -2.16972
H         -3.01748       -2.29718       -0.50214
H         -0.28991       -2.82395       -1.81191
H         -0.52700       -2.30052       -0.14658
H          0.78299       -4.69713       -0.90974
H          0.50370       -6.83211        0.50384
H         -1.23199       -6.56300        0.43124
H         -0.34169       -8.85566       -2.41408
H         -2.31535       -8.57273       -0.64674
H         -2.84508       -8.76399        1.61045
H         -2.47770      -10.48145        1.46952
H         -2.24323       -9.71527        3.84199
H         -0.68115      -10.23577        3.21570
H         -1.04968       -8.51588        3.35110
H          0.10539      -11.21467       -1.65669
H         -0.32669      -11.52436        0.02371
H         -0.63161      -13.57602       -1.36011
H         -2.18541      -13.03097       -0.73458
H         -1.75188      -12.71973       -2.41595
H         -1.38862       -4.00569        1.92725
H         -0.66502       -5.53927        2.39978
H         -0.44592       -3.86638        4.23109
H          1.14733       -4.31233        3.62644
H          0.42233       -2.77449        3.15560
H          0.81887       -9.23238       -0.01861
