29
NA-012_p0.smi:1
C          1.23259        0.44531        0.12728
C         -0.21328       -0.02456        0.32499
C         -1.22363        1.12838        0.24283
C         -2.67256        0.64716        0.44187
N         -3.63247        1.73598        0.27607
C         -4.99019        1.19998        0.21499
C         -6.00676        2.26938       -0.22491
C         -7.42231        1.69543       -0.37856
C         -8.44162        2.75384       -0.81574
N         -3.49825        2.70473        1.26629
O         -3.19534        3.78532        0.80700
H          1.92666       -0.39352        0.19067
H          1.36731        0.91263       -0.84893
H          1.52111        1.17101        0.88863
H         -0.45285       -0.77693       -0.42802
H         -0.30126       -0.52045        1.29290
H         -0.96936        1.87812        0.99343
H         -1.13444        1.61991       -0.72733
H         -2.88155       -0.13074       -0.29426
H         -2.79483        0.19071        1.42581
H         -5.02017        0.37953       -0.50382
H         -5.26781        0.78040        1.18366
H         -6.03088        3.08603        0.49806
H         -5.68765        2.70542       -1.17298
H         -7.41211        0.88348       -1.10734
H         -7.74370        1.25522        0.56664
H         -9.43617        2.31803       -0.91723
H         -8.50853        3.56383       -0.08846
H         -8.17199        3.18963       -1.77849
