24
NA-007_m0.smi:1
C         -1.40816       -1.30972        1.76463
C         -0.09320       -0.86530        1.10305
C          0.49359        0.36927        1.82310
N         -0.33493       -0.65146       -0.33595
N         -0.89697        0.59193       -0.63904
O         -2.07428        0.50925       -0.91905
C          0.69206       -1.11264       -1.28993
C          0.19314       -0.98002       -2.74219
C          2.05183       -0.42114       -1.09704
O          0.84822       -2.49991       -1.05932
H         -1.25345       -1.55147        2.81660
H         -2.17131       -0.53224        1.71471
H         -1.80910       -2.20188        1.28195
H          0.61293       -1.68684        1.22628
H          0.74182        0.12562        2.85653
H          1.40726        0.73043        1.35373
H         -0.21221        1.20014        1.85333
H          0.08489        0.06452       -3.03713
H          0.89064       -1.42979       -3.45006
H         -0.77629       -1.46062       -2.88323
H          1.96305        0.66200       -1.18770
H          2.48993       -0.64153       -0.12375
H          2.77089       -0.74937       -1.84826
H          0.92441       -2.92981       -1.90453
