45
NA-028_p0.smi:1
C         -0.06484        0.89148        3.83309
C          0.66918       -0.44882        3.77284
O          2.00909       -0.20410        3.36997
C          2.79517       -1.35262        3.29446
C          4.28018       -0.93688        3.17869
N          4.91463       -0.63908        4.46312
C          4.41400        0.59684        5.06876
C          4.99657        0.86340        6.47648
O          4.13752        1.69590        7.20223
C          3.94234        3.01231        6.69241
C          3.05765        3.77834        7.67703
O          6.26583        1.42440        6.34215
C          7.01520        1.43896        7.54887
C          8.37061        2.08865        7.26706
N          6.29658       -0.63655        4.33373
O          6.80972       -1.54085        4.95722
O          2.43362       -2.15222        2.20458
C          2.46753       -1.53401        0.92077
C          1.94518       -2.53938       -0.10672
H         -1.10155        0.75308        4.14093
H          0.40758        1.56656        4.54719
H         -0.06919        1.38105        2.85893
H          0.64606       -0.92713        4.75343
H          0.17207       -1.11651        3.06726
H          2.65763       -1.96238        4.19161
H          4.81054       -1.78659        2.74487
H          4.38339       -0.10246        2.48342
H          4.60514        1.45373        4.42119
H          3.33614        0.51392        5.19683
H          5.06031       -0.07895        7.02763
H          4.89544        3.53063        6.57784
H          3.45902        2.99098        5.71526
H          2.88054        4.79628        7.32888
H          2.08818        3.29350        7.79446
H          3.52513        3.83966        8.66009
H          6.48754        1.99959        8.32224
H          7.16111        0.42263        7.91860
H          8.98174        2.11901        8.16947
H          8.92300        1.53257        6.50917
H          8.24944        3.11245        6.91233
H          1.84484       -0.63845        0.90232
H          3.48126       -1.23537        0.65250
H          1.95090       -2.10902       -1.10849
H          2.56208       -3.43812       -0.12714
H          0.92166       -2.83825        0.12092
