30
NA-026_p0.smi:1
O         -3.31187        1.05867       -0.65858
N         -2.21402        1.10384       -1.17511
N         -1.15284        1.31750       -0.35945
C          0.14338        1.43904       -0.90062
C          1.18437        0.64768       -0.35629
C          2.50242        0.74254       -0.83794
C          2.80501        1.63789       -1.87636
C          1.78571        2.43134       -2.43081
C          0.45451        2.33845       -1.96239
C         -0.58558        3.27085       -2.59057
C         -1.24087        2.65532       -3.83744
O         -2.22315        3.25249       -4.32375
O         -0.78907        1.61021       -4.35093
C         -1.28662        1.34550        1.04704
C         -1.53292        0.14763        1.76924
Cl        -1.65313       -1.38207        0.96663
C         -1.66757        0.17794        3.17077
C         -1.55903        1.39357        3.86930
C         -1.31491        2.58468        3.16257
C         -1.17945        2.56775        1.76063
Cl        -0.89559        4.07008        0.95043
H          0.98291       -0.05302        0.44077
H          3.28081        0.12766       -0.40807
H          3.81772        1.71707       -2.24788
H          2.03103        3.11911       -3.22829
H         -1.35176        3.54165       -1.86440
H         -0.10360        4.20742       -2.87405
H         -1.85199       -0.73890        3.71195
H         -1.66253        1.41237        4.94528
H         -1.23329        3.51986        3.69762
