42
NA-038_m0.smi:1
C          0.72194       -0.93920        7.20450
N         -0.42791       -0.27929        6.59236
N         -1.42718       -0.02031        7.52164
O         -1.54314        1.16577        7.74475
C         -0.94545       -0.92113        5.38160
O          0.07575       -0.78251        4.40716
C         -1.33599       -2.40433        5.58458
C         -2.18244       -2.98351        4.43828
O         -3.43532       -2.29589        4.44342
C         -4.28092       -2.36249        3.35035
C         -3.97785       -3.07039        2.15911
C         -4.88502       -3.09185        1.08345
C         -6.10909       -2.40725        1.17613
C         -6.42992       -1.69854        2.34963
C         -7.65950       -1.01319        2.43991
C         -7.98916       -0.30227        3.60921
C         -7.09043       -0.27482        4.69174
C         -5.86142       -0.95751        4.60630
C         -5.51774       -1.67508        3.43723
C         -2.45421       -4.45120        4.62548
C         -1.78656       -5.49681        4.03869
C         -2.27404       -6.77460        4.44235
C         -3.30243       -6.68920        5.34346
S         -3.69046       -5.03269        5.71756
H          1.52994       -1.07980        6.48627
H          1.11210       -0.33186        8.02173
H          0.45253       -1.91409        7.61166
H         -1.81585       -0.35164        5.04771
H         -0.43639       -3.00919        5.70428
H         -1.89986       -2.51656        6.51142
H         -1.64692       -2.81124        3.50383
H         -3.05437       -3.61638        2.04074
H         -4.63998       -3.63784        0.18305
H         -6.79856       -2.43061        0.34325
H         -8.35633       -1.02918        1.61306
H         -8.93267        0.22212        3.67535
H         -7.34337        0.27075        5.59057
H         -5.18601       -0.92440        5.44960
H         -0.97138       -5.38937        3.33603
H         -1.85570       -7.69789        4.06396
H         -3.85309       -7.49704        5.81360
H         -0.30099       -0.33425        3.65490
