20
NA-025_m0.smi:1
C         -0.48514       -0.32083       -1.50883
N         -0.69704        0.12481       -0.13409
N         -1.45534        1.28731       -0.08092
O         -2.57133        1.08240        0.34657
C          0.50817        0.20638        0.69409
O          0.95405       -1.12482        0.85249
C          1.61400        1.09838        0.07900
C          2.70790        1.54816        1.07605
C          3.66058        0.44106        1.52570
O          3.53300       -0.70831        1.05779
O          4.53935        0.73638        2.35803
H          0.08149        0.41257       -2.08310
H          0.05073       -1.26958       -1.54198
H         -1.44347       -0.46805       -2.00764
H          0.22661        0.59196        1.67622
H          2.07242        0.61466       -0.78503
H          1.15682        2.00885       -0.30999
H          3.30693        2.33263        0.61128
H          2.24322        1.99897        1.95430
H          1.92409       -1.07867        0.90867
