18
NA-002_m0.smi:1
C         -0.41192       -1.49282        2.50085
C         -1.14838       -1.97729        1.24017
N         -0.52234       -1.47508        0.01270
N         -0.59882       -0.08436       -0.05168
O          0.49653        0.43574       -0.02099
C         -1.07401       -2.11087       -1.19043
C         -0.47017       -1.55362       -2.49159
O         -0.71023       -3.47886       -1.12540
H         -0.85308       -1.93440        3.39481
H          0.64024       -1.77886        2.47835
H         -0.46458       -0.40981        2.61616
H         -1.14233       -3.06742        1.25067
H         -2.19592       -1.67311        1.27131
H         -2.16168       -2.00955       -1.20330
H         -0.75131       -0.51250       -2.65339
H          0.61939       -1.60571       -2.48500
H         -0.82391       -2.11127       -3.35943
H         -1.47878       -3.99240       -1.36068
