43
NA-033_m0.smi:1
O         -3.50651       -5.59597       -8.87096
N         -2.48684       -5.18253       -9.38131
N         -2.29703       -5.69494      -10.66077
C         -2.74549       -4.73095      -11.66997
C         -2.64694       -5.33338      -13.08453
N         -1.27128       -5.74660      -13.36123
C         -0.44281       -4.85930      -14.09128
C         -0.90796       -4.38112      -15.33805
C         -0.14678       -3.48707      -16.13332
C          1.12959       -3.07892      -15.67316
C          1.60499       -3.55501      -14.43230
C          0.83561       -4.42958      -13.64714
F          1.34724       -4.82946      -12.45851
C          1.98679       -2.16404      -16.49202
O          3.09492       -1.81404      -16.07035
C          1.45182       -1.74015      -17.82264
C          2.21859       -0.78926      -18.81600
O          1.86850       -0.82345      -20.01742
O          3.08141       -0.00352      -18.36838
C          0.21422       -2.17792      -18.15263
N         -0.60286       -2.98570      -17.37173
C         -1.93990       -3.38000      -17.81479
C         -3.16139       -2.83379      -17.10487
C         -2.84477       -2.38014      -18.50651
C         -0.73667       -6.65292      -12.34664
C         -0.89962       -6.06686      -10.92005
O         -0.57084       -7.07614       -9.98433
H         -3.78115       -4.45336      -11.46817
H         -2.15385       -3.81623      -11.60267
H         -3.30613       -6.19923      -13.16914
H         -3.01216       -4.60391      -13.80813
H         -1.86550       -4.73154      -15.68854
H          2.57420       -3.25120      -14.06529
H         -0.23018       -1.89863      -19.09871
H         -1.96487       -4.41106      -18.16548
H         -4.00966       -3.50339      -16.97550
H         -3.00639       -2.11781      -16.29962
H         -2.50206       -1.35379      -18.62432
H         -3.48375       -2.75007      -19.30617
H         -1.29011       -7.59095      -12.41867
H          0.30200       -6.91329      -12.55389
H         -0.25904       -5.19645      -10.76747
H          0.36190       -6.99981       -9.80322
