42
NA-032_m1.smi:1
C         -0.86492       -1.49091        2.59803
N         -0.45304       -0.09052        2.55697
N         -1.40792        0.74309        3.12470
O         -1.03655        1.20403        4.18283
C         -0.00003        0.39013        1.24961
O          1.19705       -0.31762        0.97286
C         -1.04112        0.19912        0.12175
C         -0.70694        0.96914       -1.16862
O         -0.75257        2.36336       -0.85620
C         -0.23401        3.28440       -1.74290
C          0.40167        2.95827       -2.96703
C          0.90076        3.97535       -3.80523
C          0.78183        5.33214       -3.43820
C          1.31363        6.43112       -4.34965
F          0.34719        6.82807       -5.17682
F          1.72354        7.48261       -3.63874
F          2.34348        5.99545       -5.07674
C          0.14648        5.65794       -2.22214
C         -0.35332        4.64201       -1.38387
C         -1.67520        0.58658       -2.28340
C         -2.92556        1.23191       -2.40087
C         -3.82177        0.86352       -3.42341
C         -3.47537       -0.15739       -4.32949
C         -2.23404       -0.81179       -4.21037
C         -1.33795       -0.44305       -3.18774
H         -0.08509       -2.14741        2.21153
H         -1.06743       -1.79256        3.62609
H         -1.77189       -1.65726        2.01621
H          0.24608        1.44953        1.35141
H         -1.13495       -0.86237       -0.11112
H         -2.02589        0.52011        0.46372
H          0.30609        0.69326       -1.46579
H          0.51693        1.93614       -3.29445
H          1.37696        3.71300       -4.73859
H          0.04108        6.69326       -1.93260
H         -0.83626        4.91013       -0.45474
H         -3.19763        2.01449       -1.70612
H         -4.77629        1.36408       -3.51152
H         -4.16347       -0.44078       -5.11437
H         -1.96922       -1.59892       -4.90308
H         -0.38852       -0.95305       -3.09959
H          1.87512        0.32535        0.78465
