41
NA-021_m0.smi:1
C         -1.51081        2.69919        5.20910
C         -1.39174        2.32303        3.72358
C         -2.21667        1.07274        3.33227
C         -1.95180        0.62014        1.87309
O         -0.61089        0.19184        1.71478
N         -3.64269        1.32821        3.57231
C         -4.44373        0.10816        3.67407
C         -5.79753        0.33487        4.39565
O         -6.58976       -0.80514        4.11205
N         -5.69863        0.38339        5.86280
N         -4.63058        1.12736        6.36399
O         -3.82113        0.43381        6.94221
C         -6.96352        0.59453        6.58880
C         -7.25861        2.08508        6.91903
C         -7.43179        3.00142        5.69961
C         -6.90580       -0.27762        7.86294
O         -8.16076       -0.31142        8.52070
N         -4.20526        2.27514        2.72077
O         -4.55827        3.27026        3.31608
H         -0.85628        3.53705        5.45055
H         -2.52766        2.99532        5.46799
H         -1.23154        1.86416        5.85241
H         -1.66861        3.17714        3.10408
H         -0.33765        2.13927        3.51527
H         -1.91182        0.26475        3.99988
H         -2.60077       -0.21141        1.59665
H         -2.15374        1.42738        1.16681
H         -4.61740       -0.27109        2.66602
H         -3.88698       -0.66751        4.20223
H         -6.30249        1.21990        4.00922
H         -7.78727        0.21269        5.98478
H         -8.18715        2.13634        7.48797
H         -6.49639        2.49676        7.58205
H         -7.77996        3.98807        6.00668
H         -6.49038        3.14672        5.17173
H         -8.16239        2.59828        4.99766
H         -6.62789       -1.30155        7.60591
H         -6.14683        0.09016        8.55590
H         -0.04532        0.93942        1.88416
H         -7.15722       -0.58687        3.37793
H         -8.36068        0.57401        8.80945
