31
NA-039_m0.smi:1
O          7.07932       -2.26551       -2.01707
N          7.81341       -2.09585       -1.06720
N          7.13653       -2.21359        0.14266
C          7.44323       -3.48110        0.84093
C          8.61789       -3.36243        1.85187
C          8.20633       -2.27998        2.86352
C          8.38702       -1.01439        1.99935
C          9.70038       -1.33802        1.31776
C         10.68947       -0.47467        0.82052
C         11.83672       -1.03500        0.21044
N         12.79848       -0.21038       -0.27589
C         13.87757       -0.78897       -0.85223
C         14.00741       -2.18946       -0.94898
N         13.05981       -3.02880       -0.47057
C         11.96955       -2.46818        0.11135
C         10.95252       -3.30613        0.62609
C          9.83063       -2.71370        1.22440
C          7.22159       -0.98688        0.96120
O          5.95853       -0.86899        1.59444
H          6.54889       -3.79829        1.37809
H          7.64726       -4.26220        0.10726
H          8.85085       -4.31378        2.33215
H          7.20578       -2.41241        3.27641
H          8.90507       -2.26360        3.70142
H          8.44236       -0.10276        2.59576
H         10.58105        0.59752        0.89824
H         14.64587       -0.13519       -1.24073
H         14.87742       -2.63244       -1.41322
H         11.04206       -4.38067        0.55881
H          7.33748       -0.12713        0.29735
H          5.73804        0.05814        1.61621
