18
NA-019_m0.smi:1
C          0.08340        1.74347        0.14835
N          0.44609        0.45790        0.74206
N         -0.68611       -0.32210        0.96262
O         -1.01728       -0.32532        2.12926
C          1.53400       -0.26697        0.06520
C          1.94464       -1.50040        0.89059
C          1.19738       -0.64056       -1.39066
O          2.64762        0.60483        0.06832
H          0.94293        2.40745        0.05792
H         -0.35642        1.61573       -0.84068
H         -0.65066        2.25050        0.77516
H          1.15186       -2.24907        0.91757
H          2.82205       -1.99232        0.46873
H          2.17788       -1.23710        1.92350
H          0.31736       -1.28226       -1.44526
H          1.00655        0.23513       -2.01101
H          2.01919       -1.18597       -1.85580
H          3.42524        0.08429        0.24001
