23
NA-007_p0.smi:1
C         -1.42429       -1.07118        0.98981
C         -0.08992       -0.34980        0.71053
C         -0.31939        0.72523       -0.37215
N          0.97884       -1.27780        0.29633
N          2.17186       -0.61673       -0.00574
O          2.46599       -0.71449       -1.17847
C          1.19118       -2.44712        1.16657
C          1.71630       -2.05481        2.56182
C          2.11681       -3.46957        0.48227
H         -2.22847       -0.35323        1.15419
H         -1.72020       -1.70738        0.15473
H         -1.38126       -1.68446        1.88980
H          0.22366        0.15720        1.62431
H         -1.13745        1.39112       -0.09543
H          0.55640        1.35778       -0.51969
H         -0.57305        0.27572       -1.33306
H          0.24136       -2.96409        1.29450
H          1.85773       -2.94039        3.18209
H          2.67633       -1.54045        2.50860
H          1.01815       -1.40756        3.09243
H          2.17609       -4.38898        1.06556
H          1.74499       -3.73772       -0.50742
H          3.13417       -3.09405        0.36717
