42
NA-030_m2.smi:1
C         -2.47819       -0.56739        0.35231
C         -1.00613       -0.54985       -0.11061
C         -0.81002       -1.38373       -1.38964
N         -0.07381       -1.00668        0.93409
N         -0.35475       -2.29921        1.37603
O          0.54357       -3.07443        1.12574
C          0.14215       -0.04587        2.02717
O          0.77112        1.08088        1.44171
C          1.14851       -0.53566        3.11371
O          1.82245        0.60385        3.65026
C          0.46611       -1.23108        4.30890
O          1.47716       -1.86223        5.08866
C          1.10324       -2.57043        6.21395
C         -0.24105       -2.68720        6.65125
C         -0.55940       -3.42309        7.80797
C          0.45598       -4.05419        8.54739
C          1.79677       -3.95055        8.13012
C          2.81306       -4.58540        8.87432
C          4.15617       -4.48773        8.46460
C          4.48693       -3.75519        7.30946
C          3.47565       -3.11948        6.56302
C          2.12267       -3.20939        6.96388
H         -3.13142       -0.19612       -0.43801
H         -2.81978       -1.57188        0.60436
H         -2.64271        0.07027        1.22053
H         -0.75433        0.47762       -0.37567
H         -1.41742       -0.99117       -2.20579
H          0.22935       -1.36066       -1.71948
H         -1.09203       -2.42759       -1.24754
H         -0.79657        0.25857        2.49230
H          1.89562       -1.19631        2.66832
H         -0.10264       -0.51030        4.89956
H         -0.23193       -1.98979        3.95525
H         -1.05613       -2.22062        6.11830
H         -1.58864       -3.50331        8.12935
H          0.19936       -4.61700        9.43454
H          2.56800       -5.15064        9.76311
H          4.93306       -4.97565        9.03724
H          5.51864       -3.68020        6.99403
H          3.75107       -2.56247        5.67860
H          1.40933        1.31248        2.12532
H          2.35034        0.28412        4.37733
