41
NA-021_m1.smi:1
C          1.66341        3.22891        2.15637
C          1.02153        1.86409        2.45147
C          0.87251        0.96625        1.19883
C          0.06083       -0.32324        1.48910
O         -1.27945       -0.00920        1.82324
N          2.20061        0.66007        0.64877
C          2.15773        0.23532       -0.75283
C          3.52942        0.35169       -1.46077
O          3.33191        0.27706       -2.86097
N          4.45950       -0.72694       -1.10226
N          4.04323       -2.02436       -1.40804
O          3.81195       -2.67820       -0.41306
C          5.89241       -0.45607       -1.27770
C          6.39157       -0.89045       -2.68430
C          7.70238       -0.22923       -3.13732
C          6.63728       -1.15241       -0.11400
O          7.96724       -0.68555        0.00677
N          2.96659       -0.17100        1.46227
O          3.94137        0.39843        1.90447
H          1.69691        3.84409        3.05598
H          2.68688        3.12210        1.79553
H          1.09793        3.77667        1.40190
H          1.58801        1.35055        3.22949
H          0.03753        2.05107        2.88171
H          0.32943        1.54731        0.45134
H          0.04058       -0.97952        0.61862
H          0.50640       -0.89502        2.30507
H          1.75144       -0.77254       -0.84097
H          1.45993        0.89038       -1.27610
H          3.97206        1.31986       -1.21810
H          6.03102        0.62024       -1.16515
H          6.49473       -1.97551       -2.73085
H          5.64316       -0.63877       -3.43442
H          7.91150       -0.47250       -4.17962
H          7.64458        0.85718       -3.06145
H          8.56001       -0.56488       -2.55691
H          6.13069       -0.95841        0.83303
H          6.64481       -2.23559       -0.24779
H         -1.26663        0.49998        2.62825
H          3.31673        1.16893       -3.19656
H          8.40279       -0.85181       -0.82312
