46
NA-035_m0.smi:1
O         -2.62199        4.33627       -6.69913
N         -3.66754        3.96359       -7.18789
N         -4.62697        3.66978       -6.21718
C         -4.62600        2.25301       -5.84546
C         -5.11950        1.34104       -6.99848
C         -5.10084       -0.14240       -6.55953
O         -3.78282       -0.57667       -6.22810
C         -2.89421       -0.89323       -7.23514
C         -3.22147       -0.91473       -8.62386
C         -2.25196       -1.25047       -9.59626
C         -0.95903       -1.56507       -9.15326
C         -0.63281       -1.55062       -7.81454
C         -1.57788       -1.21971       -6.83047
O          0.67224       -1.89186       -7.66077
C          1.16728       -2.12567       -8.95733
O          0.12923       -1.91557       -9.88415
C         -6.52385        1.79242       -7.47488
C         -7.03591        0.98896       -8.66721
C         -6.34518        1.00812       -9.89992
C         -6.81782        0.25382      -10.99162
C         -7.98467       -0.52167      -10.86080
F         -8.43885       -1.24618      -11.91079
C         -8.67879       -0.54292       -9.63686
C         -8.20698        0.20964       -8.54324
C         -6.52806        3.30533       -7.76964
C         -5.98873        4.09015       -6.55969
O         -5.94234        5.48245       -6.81605
H         -3.61820        1.96656       -5.54174
H         -5.25897        2.11781       -4.96730
H         -4.42895        1.45546       -7.83356
H         -5.71457       -0.25544       -5.66528
H         -5.55526       -0.80652       -7.29449
H         -4.21280       -0.67639       -8.97731
H         -2.49991       -1.26528      -10.64787
H         -1.30276       -1.21369       -5.78568
H          1.99371       -1.44436       -9.16647
H          1.53069       -3.15173       -9.03507
H         -7.21504        1.62784       -6.64614
H         -5.44668        1.59761      -10.01647
H         -6.28579        0.26938      -11.93176
H         -9.57455       -1.13877       -9.53810
H         -8.75088        0.18054       -7.60925
H         -5.93054        3.52364       -8.65542
H         -7.54420        3.62875       -7.99885
H         -6.63431        3.92365       -5.69451
H         -6.67109        5.88469       -6.35014
