21
NA-015_m1.smi:1
C         -1.23281       -1.10209       -0.82649
C         -0.31480       -1.18745        0.40651
C         -0.90976       -0.41712        1.60403
N          1.04453       -0.73907        0.05523
N          1.09442        0.61873       -0.26782
O          1.35816        0.80265       -1.43744
C          2.09701       -1.13980        1.00065
C          3.49744       -0.67223        0.56689
O          2.12478       -2.55656        1.00126
H         -2.21149       -1.53265       -0.61229
H         -1.39421       -0.07277       -1.14867
H         -0.81362       -1.65383       -1.66884
H         -0.27343       -2.24245        0.67858
H         -1.90385       -0.79468        1.84575
H         -0.30504       -0.52759        2.50380
H         -1.01316        0.64881        1.39830
H          1.87482       -0.76668        2.00180
H          3.58617        0.41427        0.59567
H          4.26697       -1.06626        1.23158
H          3.73549       -0.99794       -0.44659
H          2.16658       -2.84331        1.90990
