42
NA-038_m1.smi:1
C         -2.00928       -1.24611        0.60270
N         -1.72377        0.04786        1.21752
N         -1.99998        1.06923        0.31478
O         -2.99689        1.68840        0.62004
C         -0.36113        0.12978        1.75896
O         -0.27214       -0.88919        2.74410
C         -0.08361        1.49350        2.44162
C          1.36775        1.69298        2.91877
O          1.43512        2.99817        3.49771
C          2.50807        3.36523        4.29080
C          3.56558        2.48839        4.64438
C          4.62497        2.92868        5.45938
C          4.64781        4.25002        5.93786
C          3.60779        5.13686        5.60008
C          3.63378        6.46232        6.08197
C          2.59892        7.35663        5.74941
C          1.53526        6.92819        4.93378
C          1.50494        5.60559        4.45029
C          2.53778        4.69671        4.77728
C          2.36850        1.62747        1.79619
C          3.21419        0.58857        1.49665
C          4.02351        0.83387        0.34876
C          3.78062        2.05647       -0.21954
S          2.54912        2.93250        0.64651
H         -1.31841       -1.45175       -0.21601
H         -1.94003       -2.06250        1.32174
H         -3.02321       -1.25913        0.20115
H          0.35814       -0.05394        0.95784
H         -0.30785        2.30894        1.75375
H         -0.76268        1.62463        3.28506
H          1.57978        0.93293        3.67162
H          3.59658        1.46606        4.30004
H          5.42439        2.24824        5.71786
H          5.46688        4.57741        6.56356
H          4.44743        6.80021        6.70908
H          2.62172        8.37219        6.12048
H          0.74001        7.61481        4.67757
H          0.67914        5.29703        3.82469
H          3.28147       -0.33288        2.05879
H          4.74388        0.11298       -0.01458
H          4.24826        2.49590       -1.09420
H          0.44874       -1.46412        2.50394
