39
NA-041_m1.smi:1
C         -0.72668       -0.44203        1.38000
N         -0.10972        0.21527        0.22785
N         -0.47381        1.55890        0.16608
O         -1.41993        1.74362       -0.57007
C          1.33997       -0.00169        0.05595
O          1.49773       -1.40241       -0.03120
C          2.11659        0.47424        1.30807
C          3.62473        0.54368        1.06800
C          3.97099        1.52930       -0.05669
C          5.46840        1.48370       -0.35242
C          6.29555        2.57121        0.00137
C          7.67732        2.52804       -0.26879
C          8.24550        1.40000       -0.89216
Cl         9.94474        1.37722       -1.21079
C          7.42372        0.30725       -1.24697
Cl         8.08689       -1.09332       -2.01351
C          6.04226        0.35281       -0.97527
C          3.09562        1.34176       -1.30083
C          3.50543        1.92091       -2.52559
C          2.74246        1.75537       -3.69518
C          1.55414        1.00800       -3.65422
C          1.12465        0.44560       -2.43886
C          1.86784        0.62348       -1.24685
H         -0.52541       -1.51305        1.39351
H         -0.37511       -0.01520        2.31926
H         -1.80931       -0.31847        1.34471
H          1.78708        1.47466        1.59187
H          1.91042       -0.16392        2.16798
H          4.14032        0.83036        1.98490
H          3.98148       -0.45527        0.81570
H          3.73629        2.53167        0.30618
H          5.87633        3.44481        0.48152
H          8.30538        3.36378        0.00345
H          5.41938       -0.48518       -1.25265
H          4.42054        2.49476       -2.57906
H          3.07345        2.19706       -4.62520
H          0.96830        0.87028       -4.55281
H          0.20482       -0.12289       -2.41877
H          2.18687       -1.55324       -0.66745
