17
NA-002_p0.smi:1
C         -0.25328        0.77895        0.90245
C         -1.18688        0.29776       -0.21895
N         -0.56829       -0.75748       -1.01742
C         -1.36660       -1.00982       -2.21440
C         -0.62327       -1.91465       -3.20911
N         -0.35803       -1.91715       -0.27647
O          0.81862       -2.19957       -0.19750
H         -0.70400        1.60986        1.44576
H         -0.04708       -0.00867        1.62785
H          0.69990        1.12634        0.50225
H         -2.13438       -0.05185        0.19506
H         -1.41884        1.14975       -0.86002
H         -2.32638       -1.45067       -1.93898
H         -1.58596       -0.06331       -2.71104
H         -1.20550       -2.03902       -4.12250
H          0.34030       -1.48743       -3.48910
H         -0.44463       -2.90982       -2.80071
