89
NA-040_p0.smi:1
C        -13.49403      -15.93395       -0.20252
C        -15.00760      -15.70265       -0.30354
C        -15.83479      -16.99893       -0.30686
C        -15.65353      -17.83676       -1.58196
C        -16.59826      -19.04648       -1.63909
C        -16.30582      -19.99907       -2.81326
O        -16.27031      -19.33519       -4.07142
C        -17.40096      -19.04789       -4.73990
O        -18.54791      -19.26503       -4.34379
N        -17.19939      -18.49826       -6.05263
C        -16.05157      -18.12167       -6.66518
N        -16.08787      -17.84505       -7.97293
C        -14.74479      -17.97794       -6.00715
C        -14.56805      -17.05125       -4.95782
C        -13.32229      -16.94537       -4.30702
C        -12.23379      -17.75610       -4.69794
N        -11.01264      -17.65495       -4.00890
C        -10.52541      -18.95835       -3.52565
C        -11.41855      -19.59125       -2.49090
N        -11.69071      -18.98115       -1.33432
C        -12.55395      -19.86612       -0.72015
C        -13.20971      -19.78364        0.52365
C        -14.06418      -20.82036        0.96482
C        -14.77505      -20.67673        2.28652
O        -15.34035      -19.60355        2.52210
N        -14.74010      -21.70750        3.17605
C        -15.60558      -21.68363        4.37360
C        -16.95686      -22.42454        4.21403
C        -17.93486      -21.76143        3.24593
O        -18.81910      -21.00027        3.64346
O        -17.70510      -22.09670        1.96693
C        -18.51508      -21.54406        0.94218
C        -18.16628      -22.21483       -0.38848
C        -13.84613      -22.81437        3.06193
C        -12.45510      -22.56648        3.03291
C        -11.55603      -23.64227        2.94905
C        -12.07405      -24.94532        2.91540
C        -13.46452      -25.11535        2.97236
N        -14.32648      -24.08110        3.05276
C        -14.28752      -21.94321        0.13007
C        -13.63917      -22.04719       -1.11749
C        -12.78138      -21.01228       -1.53330
N        -12.01824      -20.79472       -2.67570
C        -11.90918      -21.68712       -3.81919
N        -10.46439      -16.47228       -3.64617
O         -9.45252      -16.50993       -2.97808
C        -12.40357      -18.64607       -5.78482
C        -13.64897      -18.75569       -6.43624
H        -12.95923      -14.98461       -0.16258
H        -13.23887      -16.49278        0.69797
H        -13.11001      -16.48698       -1.05910
H        -15.32121      -15.08993        0.54288
H        -15.23215      -15.11671       -1.19599
H        -15.58866      -17.59796        0.57114
H        -16.88870      -16.73551       -0.20511
H        -15.83614      -17.20380       -2.44871
H        -14.62208      -18.17757       -1.66000
H        -16.51262      -19.61227       -0.71079
H        -17.63207      -18.70317       -1.68906
H        -15.33223      -20.46358       -2.66391
H        -17.03150      -20.81332       -2.83486
H        -16.90648      -17.95992       -8.54964
H        -15.39160      -16.42765       -4.63890
H        -13.21293      -16.24681       -3.49004
H        -10.37753      -19.63676       -4.36327
H         -9.53307      -18.86606       -3.08511
H        -13.05806      -18.91112        1.14251
H        -15.05731      -22.15045        5.19282
H        -15.78521      -20.66342        4.71649
H        -16.79178      -23.45301        3.89334
H        -17.44642      -22.48801        5.18594
H        -19.57073      -21.69945        1.17054
H        -18.34676      -20.46794        0.88051
H        -18.76746      -21.80089       -1.19799
H        -17.11743      -22.06756       -0.64260
H        -18.35460      -23.28775       -0.34846
H        -12.07090      -21.55641        3.06864
H        -10.48990      -23.46997        2.91565
H        -11.41797      -25.80251        2.85263
H        -13.89811      -26.10440        2.95642
H        -14.96190      -22.73084        0.44623
H        -13.80686      -22.90718       -1.75028
H        -10.86171      -21.84821       -4.07573
H        -12.35247      -22.65639       -3.59099
H        -12.43255      -21.26278       -4.67552
H        -11.58194      -19.25164       -6.13766
H        -13.76300      -19.45407       -7.25428
H        -18.01187      -18.33213       -6.61944
H        -15.24026      -17.52050       -8.41443
