21
NA-016_p0.smi:1
C         -0.86496       10.34429        1.29279
N         -1.62628        9.09092        1.48787
C         -1.54512        8.18225        0.31883
C         -2.31279        6.87236        0.58807
N         -3.71118        7.16611        0.89901
N         -4.45904        6.00734        1.03661
O         -5.34941        5.94550        0.21636
C         -3.77934        7.99838        2.09952
C         -3.04116        9.33106        1.86121
H         -1.26913       10.92849        0.46538
H         -0.89745       10.96212        2.19058
H          0.18269       10.13272        1.07727
H         -1.94828        8.67685       -0.56656
H         -0.50076        7.95447        0.10170
H         -2.26520        6.23712       -0.29773
H         -1.85072        6.31304        1.40351
H         -4.82407        8.20200        2.33935
H         -3.35607        7.46853        2.95473
H         -3.08484        9.93857        2.76605
H         -3.54210        9.90113        1.07691
H         -1.19316        8.61305        2.26385
