47
NA-034_m0.smi:1
C          0.73322        2.40766        0.61584
C         -0.25838        1.66897       -0.30719
C         -1.61461        2.40286       -0.26275
C         -0.37662        0.15052        0.04717
C         -1.34175       -0.63063       -0.87290
O         -1.15611       -0.58713       -2.10863
O         -2.23692       -1.32219       -0.34798
N          0.96764       -0.49206        0.19084
N          1.01129       -1.27775        1.33887
O          1.51275       -0.69118        2.27448
C          1.56337       -1.19773       -0.95677
O          1.52211       -0.30996       -2.05532
C          2.99688       -1.64738       -0.68600
C          4.00450       -0.69861       -0.41109
C          5.32380       -1.11636       -0.14774
C          5.66619       -2.48678       -0.15733
C          7.04512       -2.91491        0.15449
C          7.59896       -2.51246        1.39222
C          8.89676       -2.89709        1.77337
C          9.66524       -3.69728        0.91336
C          9.12989       -4.10043       -0.32317
C          7.82847       -3.71846       -0.72488
C          7.35491       -4.16242       -2.05594
N          7.13385       -5.45040       -2.35234
N          6.80397       -5.41108       -3.64837
N          6.86188       -4.15117       -4.09393
N          7.23068       -3.33363       -3.10115
C          4.65131       -3.43029       -0.43178
C          3.33023       -3.01778       -0.69650
H          0.44557        2.31511        1.66376
H          1.74744        2.01997        0.51487
H          0.77924        3.47084        0.37751
H          0.11743        1.76150       -1.32641
H         -2.06975        2.33869        0.72634
H         -1.49960        3.46007       -0.50478
H         -2.32375        1.99127       -0.98145
H         -0.84451        0.13959        1.03384
H          0.96876       -2.08056       -1.20136
H          3.75807        0.35416       -0.39922
H          6.08088       -0.37420        0.06481
H          7.01335       -1.90437        2.06780
H          9.29905       -2.58082        2.72618
H         10.66375       -3.99960        1.19790
H          9.72677       -4.71016       -0.98663
H          4.88716       -4.48562       -0.43736
H          2.57256       -3.76083       -0.90298
H          0.59062       -0.29577       -2.31034
