42
NA-032_m0.smi:1
C         -1.07658       -0.17585        2.06477
N          0.11746        0.24951        1.33976
N          0.65631        1.41304        1.87361
O          1.71776        1.21083        2.42352
C         -0.02171        0.31679       -0.11683
O         -0.21983       -1.01951       -0.54641
C         -1.17911        1.23295       -0.58729
C         -1.18501        1.54738       -2.09699
O         -2.34133        2.35375       -2.33304
C         -2.77027        2.58420       -3.62392
C         -3.85687        3.46839       -3.77913
C         -4.36958        3.76672       -5.05691
C         -3.80068        3.18437       -6.20830
C         -4.36090        3.50018       -7.58951
F         -5.35115        2.65393       -7.87071
F         -4.83874        4.74456       -7.63618
F         -3.42074        3.38156       -8.52822
C         -2.71907        2.29129       -6.05924
C         -2.20573        1.99207       -4.78126
C          0.10253        2.23961       -2.53635
C          0.32153        3.59802       -2.22118
C          1.51738        4.23354       -2.60870
C          2.50252        3.51238       -3.31047
C          2.29155        2.15569       -3.62367
C          1.09560        1.52028       -3.23597
H         -1.45833       -1.12328        1.68382
H         -0.84367       -0.31729        3.12055
H         -1.87173        0.56683        1.99503
H          0.93009        0.66863       -0.51975
H         -2.13756        0.78734       -0.31932
H         -1.13027        2.17985       -0.04826
H         -1.29374        0.59929       -2.62588
H         -4.30430        3.92544       -2.90777
H         -5.20463        4.44476       -5.15567
H         -2.28070        1.83082       -6.93251
H         -1.37680        1.30358       -4.72229
H         -0.43205        4.15500       -1.68161
H          1.67889        5.27503       -2.36660
H          3.42093        3.99997       -3.60806
H          3.04840        1.60126       -4.16153
H          0.94297        0.47802       -3.47956
H          0.47334       -1.23112       -1.16513
