25
NA-027_p0.smi:1
C          1.65081       -3.94941       -3.01287
O          0.77787       -3.01096       -2.40109
C          1.35742       -2.40098       -1.25734
C          0.35067       -1.39855       -0.67004
N          0.91442       -0.68175        0.47170
C          0.16062        0.51923        0.82970
C         -1.25033        0.23214        1.37920
O         -1.85767        1.46740        1.72752
C         -3.16847        1.29844        2.24760
N          1.17048       -1.50271        1.56337
O          2.34425       -1.49946        1.86611
H          1.16611       -4.39122       -3.88365
H          2.57269       -3.47294       -3.34961
H          1.90771       -4.75830       -2.32731
H          1.61446       -3.16609       -0.52263
H          2.27960       -1.88687       -1.53477
H          0.08102       -0.68066       -1.44587
H         -0.56580       -1.91350       -0.37918
H          0.73352        1.07110        1.57623
H          0.09222        1.17148       -0.04184
H         -1.86055       -0.27636        0.63128
H         -1.19870       -0.41261        2.25826
H         -3.59346        2.27014        2.49980
H         -3.82720        0.82503        1.51804
H         -3.16070        0.69181        3.15437
