39
NA-023_m1.smi:1
C         -0.97176        0.94118       -2.04105
N         -0.87648       -0.32972       -1.32874
N         -2.07510       -1.02605       -1.43209
O         -1.96167       -2.02692       -2.10707
C         -0.45257       -0.15529        0.06352
O          0.85696        0.38095        0.01451
C         -0.31284       -1.50021        0.80375
O          0.12232       -1.21284        2.12888
C          0.28054       -2.36622        2.95218
C         -1.05761       -2.99336        3.32656
C         -2.14021       -2.17763        3.72160
C         -3.37516       -2.75680        4.07363
C         -3.53236       -4.15583        4.03700
C         -2.45380       -4.97492        3.65057
C         -1.21892       -4.39531        3.29834
C          1.08766       -2.03753        4.20080
C          1.03336       -0.74817        4.77510
C          1.77170       -0.45605        5.93895
C          2.56518       -1.45293        6.53868
C          2.61754       -2.74266        5.97573
C          1.87899       -3.03428        4.81192
H         -0.01209        1.45736       -2.07559
H         -1.28703        0.77596       -3.07191
H         -1.69709        1.60296       -1.56587
H         -1.13010        0.51208        0.60024
H         -1.27186       -2.01888        0.83703
H          0.39531       -2.15795        0.29554
H          0.86309       -3.09902        2.38955
H         -2.02101       -1.10348        3.75291
H         -4.20171       -2.12708        4.37321
H         -4.48011       -4.60114        4.30776
H         -2.57310       -6.04947        3.62525
H         -0.39485       -5.03108        3.00546
H          0.42200        0.02069        4.32346
H          1.72734        0.53359        6.37268
H          3.13147       -1.22905        7.43259
H          3.22329       -3.51017        6.43792
H          1.91977       -4.02823        4.38816
H          1.27046        0.09834        0.82700
