32
NA-024_m0.smi:1
O          0.53874       12.21598       -3.97485
N          0.24690       11.52461       -3.02197
N          0.27798       10.16716       -3.33118
C          1.54003        9.57130       -2.89361
C          1.63084        8.09880       -3.33548
N          0.51079        7.30054       -2.77121
C          0.58481        5.85330       -3.12843
C          1.87089        5.15410       -2.65613
C          1.54425        3.65590       -2.65465
C          0.01621        3.54930       -2.55175
C         -0.50984        4.98762       -2.48194
C         -0.78013        7.93105       -3.15297
C         -0.83419        9.42011       -2.73430
O         -2.02434       10.00036       -3.24589
H          2.36998       10.12747       -3.33212
H          1.64411        9.65585       -1.81031
H          1.62873        8.03091       -4.42488
H          2.58917        7.70151       -3.00128
H          0.51261        5.75103       -4.21361
H          2.73084        5.37515       -3.28966
H          2.12062        5.46637       -1.64075
H          1.88531        3.19314       -3.58230
H          2.04599        3.14033       -1.83434
H         -0.37855        3.04585       -3.43590
H         -0.29635        2.96726       -1.68344
H         -0.64651        5.26800       -1.43621
H         -1.47620        5.08407       -2.97857
H         -0.92253        7.83603       -4.23103
H         -1.61086        7.40732       -2.68037
H         -0.81323        9.52036       -1.64642
H          0.58081        7.36516       -1.76682
H         -2.65102       10.05577       -2.52877
