39
NA-041_m0.smi:1
C         -6.71266        7.20153        1.60168
N         -6.41222        7.55325        0.21404
N         -7.58109        7.66549       -0.53531
O         -7.94625        8.81675       -0.64501
C         -5.37507        6.73946       -0.44821
O         -4.22134        6.88510        0.35352
C         -5.75441        5.23584       -0.42514
C         -4.93795        4.40087       -1.41628
C         -5.11493        4.89361       -2.85885
C         -6.43857        4.42114       -3.46042
C         -6.51054        3.14628       -4.06197
C         -7.72145        2.68659       -4.61545
C         -8.87439        3.49393       -4.57244
Cl       -10.34697        2.90229       -5.25860
C         -8.81269        4.77003       -3.97072
Cl       -10.20779        5.78810       -3.89479
C         -7.59997        5.22713       -3.41954
C         -4.91246        6.40160       -2.97767
C         -4.58782        6.93745       -4.24356
C         -4.38290        8.31937       -4.40630
C         -4.49477        9.17759       -3.29898
C         -4.81778        8.65152       -2.03439
C         -5.04550        7.26585       -1.85639
H         -5.81791        7.20318        2.22399
H         -7.40422        7.92751        2.02981
H         -7.17749        6.21815        1.67277
H         -5.65659        4.82057        0.57863
H         -6.80537        5.11334       -0.68761
H         -3.88545        4.47966       -1.14184
H         -5.19151        3.34343       -1.33740
H         -4.32260        4.43037       -3.45036
H         -5.63538        2.51205       -4.09980
H         -7.76729        1.70951       -5.07398
H         -7.57208        6.20589       -2.96492
H         -4.49595        6.28286       -5.09980
H         -4.13517        8.71979       -5.37989
H         -4.33087       10.23995       -3.41800
H         -4.89472        9.32052       -1.18809
H         -3.47940        6.85521       -0.23929
