25
NA-005_p0.smi:1
O          1.00378        0.17829       -2.89990
N          1.16389       -0.63782       -2.01543
N          1.92114       -0.27029       -0.94774
C          2.44570        1.03011       -0.80726
C          1.58346        2.14508       -0.71203
C          2.11010        3.44283       -0.55986
C          3.50370        3.63563       -0.50055
C          4.36971        2.52920       -0.59374
C          3.84263        1.23164       -0.74609
C          2.20619       -1.22160        0.05414
C          2.38554       -0.83664        1.40574
C          2.66429       -1.79689        2.39799
C          2.76550       -3.15758        2.05484
C          2.58561       -3.55542        0.71735
C          2.30645       -2.59467       -0.27440
H          0.51226        2.00640       -0.75332
H          1.44283        4.29040       -0.48774
H          3.90833        4.63195       -0.38323
H          5.44008        2.67438       -0.54814
H          4.51628        0.38913       -0.81641
H          2.30454        0.20015        1.70024
H          2.79836       -1.48697        3.42505
H          2.97945       -3.89519        2.81663
H          2.66248       -4.59996        0.44916
H          2.17893       -2.92726       -1.29484
