42
NA-030_m1.smi:1
C          1.02119       -3.27122       -0.04347
C          0.59799       -2.72706       -1.41989
C          1.78612       -2.07216       -2.15546
N         -0.55065       -1.81775       -1.26824
N         -0.22433       -0.65200       -0.57580
O         -0.82236       -0.56074        0.47520
C         -1.30840       -1.57398       -2.50557
O         -1.87488       -2.82024       -2.87156
C         -2.53313       -0.62524       -2.32377
O         -3.54361       -1.00967       -3.25740
C         -2.21091        0.85222       -2.62581
O         -3.30379        1.64488       -2.17203
C         -3.23457        3.01676       -2.31649
C         -2.13670        3.68336       -2.91845
C         -2.12448        5.08572       -3.03734
C         -3.20553        5.84625       -2.55891
C         -4.30502        5.20380       -1.95809
C         -5.38787        5.97020       -1.47875
C         -6.49097        5.33687       -0.87590
C         -6.51450        3.93540       -0.75065
C         -5.43567        3.16578       -1.22799
C         -4.32169        3.78946       -1.83577
H          1.80175       -4.02552       -0.14760
H          1.41143       -2.48728        0.60654
H          0.18166       -3.74260        0.46902
H          0.28180       -3.59143       -2.00491
H          2.60264       -2.78542       -2.27270
H          1.51496       -1.73848       -3.15677
H          2.18564       -1.21472       -1.61290
H         -0.66712       -1.21212       -3.31058
H         -2.94312       -0.72432       -1.31627
H         -1.30927        1.15730       -2.09482
H         -2.02895        0.99577       -3.69265
H         -1.28337        3.14404       -3.30186
H         -1.28069        5.58009       -3.49852
H         -3.18511        6.92320       -2.65579
H         -5.37813        7.04768       -1.57061
H         -7.31953        5.92727       -0.50918
H         -7.36161        3.44836       -0.28725
H         -5.47330        2.09084       -1.12132
H         -2.74522       -2.54466       -3.17948
H         -4.23133       -0.35213       -3.19263
