26
NA-027_m1.smi:1
C         -1.86104       -1.13158       -2.59669
O         -2.62785       -2.15722       -1.97810
C         -2.40912       -2.27310       -0.57658
C         -1.08078       -2.99366       -0.26797
N         -0.93074       -3.26073        1.16559
N         -0.84012       -2.07118        1.88457
O         -1.77394       -1.92659        2.64458
C          0.19739       -4.15645        1.44229
O         -0.14581       -5.40984        0.87951
C          0.37739       -4.43596        2.94972
O          1.46652       -5.33833        3.09785
C          1.72239       -5.65677        4.45807
H         -2.11312       -1.07609       -3.65582
H         -2.07141       -0.15656       -2.15486
H         -0.79025       -1.32261       -2.52420
H         -2.46159       -1.29139       -0.10254
H         -3.23361       -2.85751       -0.16615
H         -1.07137       -3.92821       -0.82895
H         -0.22656       -2.41235       -0.61634
H          1.12244       -3.76987        1.00948
H          0.60727       -3.51592        3.49004
H         -0.53410       -4.85144        3.38513
H          2.56065       -6.35074        4.52327
H          1.98099       -4.76635        5.03307
H          0.85804       -6.13254        4.92378
H          0.32144       -6.05436        1.40673
