42
NA-032_m2.smi:1
C         -0.59806        1.42303       -1.74290
N         -1.21170        0.11892       -1.97770
N         -0.29016       -0.80482       -2.45360
O         -0.48408       -1.08065       -3.61823
C         -2.00567       -0.40820       -0.86539
O         -3.11577        0.46458       -0.73734
C         -1.21984       -0.51881        0.46229
C         -1.93884       -1.34730        1.54229
O         -2.03282       -2.68873        1.05726
C         -2.86291       -3.59204        1.68845
C         -3.69668       -3.28778        2.79352
C         -4.51154       -4.28369        3.36825
C         -4.51572       -5.59598        2.85101
C         -5.39042       -6.67361        3.47947
F         -4.70152       -7.30706        4.42812
F         -6.48361       -6.14344        4.02985
F         -5.77707       -7.56610        2.56680
C         -3.68385       -5.90071        1.75385
C         -2.86856       -4.90604        1.17897
C         -1.19252       -1.25528        2.86937
C         -1.56401       -0.28188        3.82130
C         -0.86907       -0.18143        5.04264
C          0.20583       -1.04953        5.31534
C          0.58775       -2.01586        4.36480
C         -0.10729       -2.11595        3.14356
H         -1.33750        2.16164       -1.43275
H          0.17402        1.36826       -0.97501
H         -0.13318        1.78938       -2.65865
H         -2.37792       -1.39237       -1.15886
H         -0.24312       -0.96971        0.28216
H         -1.02229        0.48033        0.85277
H         -2.94002       -0.93158        1.66653
H         -3.72948       -2.29993        3.22745
H         -5.13719       -4.03992        4.21439
H         -3.67064       -6.90362        1.35284
H         -2.23814       -5.15718        0.33763
H         -2.38540        0.39107        3.61692
H         -1.16006        0.56381        5.77030
H          0.73962       -0.97206        6.25282
H          1.41543       -2.68045        4.57146
H          0.19178       -2.85778        2.41597
H         -3.90628       -0.06631       -0.78026
