15
NA-014_m1.smi:1
C         -0.59890       -0.80327       -1.28549
C          0.00477        0.42129       -0.57748
O         -0.25139        1.54623       -1.39938
N          1.46175        0.32801       -0.44590
C          2.03561        1.49098        0.22522
N          1.86203       -0.83976        0.19489
O          2.69356       -1.44772       -0.44508
H         -0.48527       -1.70952       -0.68970
H         -1.66801       -0.67133       -1.45521
H         -0.12855       -0.98195       -2.25333
H         -0.45470        0.55939        0.40403
H          1.84139        2.41201       -0.32464
H          1.62984        1.60209        1.23163
H          3.11816        1.38631        0.30588
H         -0.94031        2.05632       -0.98121
