19
NA-025_p0.smi:1
C          0.54806       -0.75383        0.26434
N          0.25407        0.34915       -0.63864
C         -0.67697       -0.08272       -1.67629
C         -1.21921        1.11630       -2.48111
C         -2.31376        0.73299       -3.50080
C         -1.79619       -0.13571       -4.64821
O         -2.48557       -1.11257       -5.00094
O         -0.72623        0.17271       -5.20965
N          1.41962        0.89259       -1.16289
O          1.63871        2.00168       -0.72487
H          1.02976       -1.57852       -0.26324
H          1.21435       -0.42560        1.06318
H         -0.36347       -1.13126        0.72930
H         -0.18869       -0.80553       -2.33249
H         -1.51709       -0.59825       -1.20788
H         -1.63743        1.84863       -1.78960
H         -0.40546        1.62728       -2.99769
H         -3.13282        0.22392       -2.98979
H         -2.74101        1.63982       -3.93158
