46
NA-028_m1.smi:1
C         -4.86306       -0.96741       -0.83026
C         -3.35942       -1.17153       -0.64062
O         -3.04077       -0.92240        0.72138
C         -1.68339       -1.04965        1.01216
C         -1.51346       -1.07970        2.54690
N         -2.12899       -2.26122        3.15368
N         -1.52982       -3.45410        2.75502
O         -2.23331       -4.08448        1.99444
C         -2.28166       -2.11718        4.60503
O         -0.98663       -2.12492        5.18100
C         -3.16911       -3.20371        5.25512
O         -3.54890       -2.70852        6.50218
C         -4.50822       -3.48798        7.20063
C         -4.95017       -2.71070        8.44152
O         -2.39671       -4.36382        5.37555
C         -3.06548       -5.56509        5.00925
C         -2.09140       -6.72959        5.18874
O         -0.92565       -0.01392        0.45431
C         -1.28925        1.31720        0.80956
C         -0.47420        2.27982       -0.05541
H         -5.15207       -1.15029       -1.86552
H         -5.43511       -1.64837       -0.19959
H         -5.15604        0.05200       -0.57795
H         -3.08546       -2.19161       -0.91502
H         -2.80809       -0.49414       -1.29487
H         -1.29831       -1.97401        0.57471
H         -0.44940       -1.05093        2.78659
H         -1.97103       -0.18257        2.96338
H         -2.76299       -1.15681        4.80001
H         -4.06367       -3.35576        4.64206
H         -5.37292       -3.69796        6.56884
H         -4.07353       -4.44096        7.50374
H         -5.68614       -3.27729        9.01261
H         -4.10504       -2.50586        9.09919
H         -5.40325       -1.75736        8.16851
H         -3.95413       -5.72773        5.61881
H         -3.39298       -5.51710        3.96992
H         -2.56030       -7.67443        4.91278
H         -1.20731       -6.60161        4.56362
H         -1.76260       -6.81104        6.22502
H         -2.35321        1.49185        0.64325
H         -1.08160        1.51366        1.86153
H         -0.67678        2.12352       -1.11526
H         -0.71894        3.31577        0.18063
H          0.59557        2.14545        0.10655
H         -0.99217       -2.89526        5.74593
