51
NA-017_m1.smi:1
N         -7.64954       -0.37600       -4.41592
C         -6.64621       -0.60907       -3.50637
N         -5.40192       -0.30982       -3.73260
C         -4.46108       -0.59229       -2.73119
N         -3.17162       -0.26938       -2.99369
C         -2.26730       -0.54118       -2.02013
C         -2.64576       -1.13394       -0.79087
C         -1.61654       -1.42253        0.30423
O         -2.15831       -2.27783        1.29276
N         -0.93827       -0.24185        0.84911
N          0.41235       -0.23729        0.92553
O          0.93197        0.75482        1.39325
C         -1.79582        0.83855        1.14607
C         -1.63969        2.06446        0.46265
C         -2.49433        3.15099        0.73317
C         -3.51527        3.03796        1.70197
C         -4.42869        4.20177        1.97050
O         -4.71955        4.99976        1.07683
N         -4.83990        4.33295        3.23449
C         -5.59778        5.46637        3.75931
C         -6.32888        5.02556        5.05250
C         -7.37302        3.89803        4.85955
C         -8.57358        4.29142        3.99941
O         -9.12848        5.38942        4.20375
O         -8.97667        3.48066        3.14276
C         -4.60940        6.60025        4.09750
O         -3.55413        6.31907        4.70584
O         -4.88608        7.76391        3.74349
C         -3.68077        1.80734        2.37865
C         -2.82615        0.72057        2.10584
N         -3.93669       -1.46731       -0.52517
C         -4.84071       -1.19044       -1.49866
C         -6.29672       -1.51597       -1.29563
O         -6.71227       -2.04038       -0.25438
N         -7.10085       -1.19721       -2.32389
H         -7.48616        0.04552       -5.32107
H         -8.62866       -0.59058       -4.28205
H         -1.23783       -0.27916       -2.21742
H         -0.84676       -2.01474       -0.19480
H         -3.06913       -2.37649        1.01837
H         -0.86230        2.17605       -0.28014
H         -2.35952        4.07952        0.19557
H         -4.45043        3.69878        3.91438
H         -6.31897        5.81959        3.01882
H         -5.59952        4.70259        5.79666
H         -6.82305        5.89293        5.49369
H         -6.89575        3.01161        4.43893
H         -7.75239        3.59443        5.83634
H         -4.46809        1.68315        3.10909
H         -2.96803       -0.20416        2.64626
H         -8.07919       -1.40493       -2.21177
