45
NA-036_p0.smi:1
C         -4.11520       -0.00022       -0.13654
C         -2.66184       -0.47469       -0.25558
C         -2.52528       -1.70117       -1.16672
C         -1.07285       -2.18176       -1.30486
N         -0.93858       -3.32159       -2.21470
N         -0.42236       -3.12563       -3.44913
O         -0.22543       -4.11494       -4.12326
C         -1.36799       -4.54795       -1.65827
C         -0.79074       -5.00732       -0.45266
C         -1.17634       -6.23489        0.12671
C         -0.55371       -6.70108        1.41038
O          0.30996       -6.00183        1.97754
O         -0.90011       -7.79044        1.91036
C         -2.14686       -7.02348       -0.52619
C         -2.72334       -6.58758       -1.73559
S         -3.91893       -7.65071       -2.57260
N         -3.53363       -9.23424       -2.06801
O         -5.26333       -7.37303       -2.04218
O         -3.68862       -7.63055       -4.02636
C         -2.35828       -5.34114       -2.29970
O         -2.94135       -4.92828       -3.47600
C         -3.90754       -3.95241       -3.43717
C         -3.88166       -2.94686       -4.42443
C         -4.85114       -1.92494       -4.42836
C         -5.85917       -1.90729       -3.44547
C         -5.90012       -2.91611       -2.46406
C         -4.93138       -3.93890       -2.46162
H         -4.18897        0.87303        0.51243
H         -4.52240        0.27484       -1.11035
H         -4.75279       -0.77960        0.28250
H         -2.04696        0.33968       -0.64155
H         -2.27507       -0.70940        0.73717
H         -3.14355       -2.50726       -0.77099
H         -2.92015       -1.45710       -2.15302
H         -0.46515       -1.36194       -1.69151
H         -0.66051       -2.40221       -0.32076
H         -0.02275       -4.42430        0.03449
H         -2.44504       -7.96543       -0.09283
H         -2.56802       -9.45053       -2.31932
H         -3.10650       -2.95496       -5.17778
H         -4.81921       -1.15317       -5.18484
H         -6.60236       -1.12157       -3.44576
H         -6.67574       -2.90582       -1.71091
H         -4.98140       -4.70404       -1.70093
H         -3.66162       -9.32107       -1.05961
