31
NA-039_m3.smi:1
O          7.78043        6.69830       -0.28785
N          6.92640        6.54366        0.55868
N          6.03381        7.61014        0.60000
C          6.24848        8.48167        1.77582
C          5.37669        8.09241        3.00236
C          3.91448        8.17611        2.53396
C          3.83442        6.90835        1.65787
C          4.57689        5.92443        2.53814
C          4.45169        4.52899        2.62730
C          5.28028        3.82884        3.53591
N          5.16980        2.47954        3.62928
C          5.98240        1.85066        4.50994
C          6.90925        2.55810        5.30244
N          7.03501        3.90324        5.22423
C          6.22881        4.55278        4.34688
C          6.32458        5.95946        4.23050
C          5.48598        6.61832        3.31933
C          4.63924        7.19177        0.35069
O          4.06022        8.24352       -0.40347
H          7.30624        8.48118        2.04255
H          6.01076        9.50610        1.48760
H          5.57274        8.72481        3.86936
H          3.24071        8.08423        3.38731
H          3.66327        9.10397        2.01911
H          2.80747        6.59719        1.46193
H          3.73917        3.99498        2.01530
H          5.89715        0.77574        4.58717
H          7.54984        2.03723        6.00028
H          7.03005        6.51210        4.83386
H          4.64585        6.30026       -0.28055
H          3.48115        7.84488       -1.04723
