89
NA-040_m1.smi:1
C         -9.84699       -7.48591        0.81885
C         -9.01929       -6.20765        0.99414
C         -7.79376       -6.16735        0.07065
C         -6.97110       -4.88351        0.26023
C         -5.79297       -4.74318       -0.71645
C         -4.68909       -5.79435       -0.51115
O         -3.58256       -5.52457       -1.36486
C         -2.56271       -4.76773       -0.93275
O         -2.48715       -4.29302        0.20245
N         -1.66774       -4.61787       -1.98468
C         -0.47325       -3.90108       -1.97324
N          0.08126       -3.50964       -3.06772
C          0.19812       -3.59503       -0.67872
C          0.88423       -4.61099        0.01629
C          1.43583       -4.35110        1.28537
C          1.29331       -3.07764        1.88491
N          1.74222       -2.82725        3.20029
N          2.51769       -1.79535        3.60522
O          2.97997       -1.08033        2.74047
C          1.19999       -3.74042        4.21506
O          1.96971       -4.91022        4.38892
C         -0.24936       -4.13784        4.04222
N         -0.57710       -5.41380        3.80046
C         -1.95160       -5.34510        3.68480
C         -2.89082       -6.36191        3.42486
C         -4.27643       -6.08031        3.38405
C         -5.23994       -7.20065        3.08010
O         -4.96728       -7.94283        2.13030
N         -6.32456       -7.39266        3.88122
C         -7.35512       -8.38235        3.50532
C         -7.34640       -9.66309        4.37448
C         -6.09011      -10.51915        4.21736
O         -6.09231      -11.55391        3.54782
O         -5.03571      -10.01048        4.87184
C         -3.78002      -10.66416        4.80034
C         -2.76136       -9.86746        5.61928
C         -6.53677       -6.69148        5.10371
C         -5.60504       -6.85909        6.15211
C         -5.80884       -6.20318        7.37692
C         -6.95390       -5.40655        7.52568
C         -7.84517       -5.30494        6.44797
N         -7.64830       -5.93583        5.27207
C         -4.72072       -4.74610        3.56399
C         -3.79675       -3.71196        3.82135
C         -2.42512       -4.01689        3.88483
N         -1.28180       -3.26259        4.12352
C         -1.23319       -1.83396        4.39217
C          0.64274       -2.05304        1.16008
C          0.10202       -2.30694       -0.11511
H        -10.69914       -7.49362        1.49927
H        -10.23475       -7.56858       -0.19710
H         -9.25395       -8.37772        1.02200
H         -9.65446       -5.34230        0.79898
H         -8.69964       -6.12010        2.03326
H         -7.16857       -7.04048        0.26219
H         -8.12011       -6.24197       -0.96788
H         -7.62690       -4.02121        0.13155
H         -6.60338       -4.82860        1.28454
H         -6.15469       -4.78399       -1.74455
H         -5.36354       -3.74898       -0.58640
H         -4.37894       -5.82826        0.53350
H         -5.07042       -6.78658       -0.75167
H         -0.47532       -3.78283       -3.87492
H          0.96681       -5.59931       -0.41337
H          1.94419       -5.15100        1.80342
H          1.25455       -3.21617        5.17084
H         -2.54058       -7.37062        3.25950
H         -8.33356       -7.91244        3.60299
H         -7.29143       -8.65987        2.45226
H         -7.46318       -9.40666        5.42762
H         -8.20727      -10.27977        4.11548
H         -3.86507      -11.68019        5.18856
H         -3.45542      -10.73365        3.76099
H         -1.78115      -10.34279        5.58341
H         -2.65330       -8.85280        5.23712
H         -3.06238       -9.80292        6.66505
H         -4.73317       -7.48494        6.02269
H         -5.10226       -6.31333        8.18688
H         -7.15074       -4.88476        8.45206
H         -8.74012       -4.70594        6.52996
H         -5.77622       -4.50826        3.50659
H         -4.13571       -2.69569        3.96539
H         -2.16820       -1.50508        4.84659
H         -0.42066       -1.59495        5.07823
H         -1.08697       -1.28768        3.46050
H          0.52653       -1.06965        1.59271
H         -0.42154       -1.52353       -0.64448
H         -1.98022       -5.05854       -2.83678
H          1.30768       -5.59472        4.27147
