21
NA-016_m0.smi:1
C          3.64396       -1.84255        0.11159
N          3.84848       -0.46545        0.55145
C          2.58692        0.17343        0.92210
C          2.79110        1.63018        1.37952
N          3.72050        1.69823        2.51048
N          3.87532        3.01243        2.93972
O          3.16917        3.26759        3.89231
C          4.99722        1.05655        2.17384
O          5.75857        1.02020        3.36622
C          4.77084       -0.39331        1.68310
H          4.58727       -2.30302       -0.18681
H          3.20823       -2.45543        0.90300
H          2.97458       -1.88340       -0.74932
H          1.89970        0.16075        0.07401
H          2.09648       -0.39013        1.71899
H          3.17229        2.23200        0.55268
H          1.83217        2.06148        1.67061
H          5.51686        1.64308        1.41256
H          4.38645       -0.99711        2.50828
H          5.73044       -0.83349        1.40575
H          6.67491        1.11223        3.11907
