11
NA-004_p0.smi:1
C          0.20470       -0.12773       -0.09662
N          1.60994       -0.11025       -0.47280
C          1.86819        0.96397       -1.41931
N          2.02383       -1.33796       -0.96561
O          2.89560       -1.82858       -0.28089
H         -0.09260        0.82609        0.34101
H         -0.43376       -0.32132       -0.96005
H          0.01804       -0.90521        0.64542
H          1.58960        1.93006       -0.99653
H          2.92919        1.00527       -1.66926
H          1.30633        0.82061       -2.34362
