29
NA-037_m0.smi:1
C          6.63685       -1.55318       -0.18748
C          6.65863       -3.08534       -0.34292
C          5.41199       -3.70199        0.33280
N          5.61500       -5.05138        0.86229
N          6.48154       -5.07950        1.94964
O          5.89060       -5.22347        2.99849
C          5.86921       -6.13193       -0.08816
O          4.70796       -6.26005       -0.89037
C          7.14559       -5.97972       -0.94400
C          7.04568       -4.94516       -2.05989
C          7.18611       -5.38571       -3.39513
C          7.09087       -4.47779       -4.46408
C          6.85196       -3.11861       -4.20542
Cl         6.72905       -1.99903       -5.51279
C          6.71224       -2.67135       -2.87905
C          6.81216       -3.57242       -1.78888
H          7.52741       -1.09552       -0.61962
H          5.75830       -1.10918       -0.65668
H          6.61513       -1.27118        0.86568
H          7.55422       -3.40818        0.18976
H          5.11724       -3.08445        1.18237
H          4.56225       -3.68286       -0.35045
H          5.95975       -7.04822        0.49893
H          8.00291       -5.74393       -0.31226
H          7.38077       -6.95106       -1.38145
H          7.36751       -6.42935       -3.61320
H          7.19899       -4.82450       -5.48183
H          6.52651       -1.61932       -2.72711
H          4.94094       -5.93682       -1.75607
