45
NA-035_p0.smi:1
O         -1.57332        0.97780        0.83505
N         -2.18555        0.38801        1.69926
N         -1.43450       -0.63470        2.25758
C         -2.06960       -1.93475        2.05888
C         -1.13584       -3.05425        2.54563
C         -0.76993       -2.86930        4.02907
C          0.16480       -3.97295        4.51649
C         -0.24709       -4.84119        5.55119
C          0.61524       -5.85475        6.01390
C          1.89379       -6.00775        5.44627
F          2.72195       -6.98169        5.89274
C          2.31017       -5.14690        4.41401
C          1.44886       -4.13405        3.94883
C         -0.19986       -1.44778        4.25214
C          0.09020       -1.15987        5.74430
O          0.71722        0.10913        5.92525
C          2.06657        0.24393        5.67087
C          2.60027        1.55367        5.78128
C          3.96897        1.81475        5.54456
C          4.78878        0.73148        5.19648
C          4.28597       -0.54723        5.08776
C          2.93030       -0.83115        5.31875
O          5.28428       -1.39993        4.74219
C          6.44648       -0.61376        4.63464
O          6.11785        0.72389        4.92305
C         -1.17120       -0.39333        3.67536
H         -3.02363       -1.97227        2.58778
H         -2.28602       -2.07539        0.99871
H         -1.61874       -4.02141        2.40071
H         -0.23726       -3.06430        1.92759
H         -1.69616       -2.94423        4.60192
H         -1.22529       -4.73526        5.99938
H          0.29708       -6.51651        6.80636
H          3.29211       -5.26483        3.97923
H          1.78393       -3.47979        3.15633
H          0.73452       -1.36895        3.69657
H         -0.85316       -1.13766        6.29082
H          0.66988       -1.94967        6.22171
H          1.94795        2.37249        6.05075
H          4.36970        2.81468        5.62892
H          2.58953       -1.84990        5.22093
H          7.20022       -0.96965        5.33898
H          6.84983       -0.68610        3.62322
H         -0.73606        0.60093        3.78819
H         -2.11004       -0.39244        4.23190
