88
NA-040_p0.smi:1
C         -1.36925       -0.98049       15.48743
C         -1.99344        0.17333       16.28244
C         -3.27099       -0.22716       17.03957
C         -4.51235       -0.40823       16.14636
C         -5.11526        0.92352       15.66841
C         -6.37817        0.74757       14.81732
O         -6.01063        0.18588       13.56899
C         -6.92552        0.03641       12.59526
O         -8.12631        0.27023       12.74202
N         -6.35749       -0.43524       11.41221
C         -5.01019       -0.65375       11.12478
N         -4.64152       -1.71081       10.48706
C         -3.98014        0.35635       11.53615
C         -2.73948       -0.06179       12.05906
C         -1.77862        0.88545       12.46312
C         -2.02847        2.27291       12.35318
N         -1.02815        3.18093       12.76533
C         -1.53067        4.45783       13.30818
C         -2.44145        4.33821       14.50109
N         -3.74357        4.62751       14.43419
C         -4.17201        4.38013       15.72315
C         -5.45659        4.49551       16.28945
C         -5.67720        4.19826       17.65444
C         -7.07319        4.30385       18.21335
O         -7.98875        3.77608       17.57205
N         -7.27756        5.00038       19.36574
C         -8.59589        4.96799       20.03233
C         -8.72771        3.91664       21.16240
C         -8.77915        2.46851       20.67939
O         -9.84769        1.86419       20.56725
O         -7.56507        1.97087       20.40208
C         -7.44748        0.64355       19.91685
C         -5.97392        0.34645       19.63474
C         -6.29392        5.85186       19.95196
C         -5.80422        6.94317       19.19949
C         -4.85720        7.81212       19.76587
C         -4.43741        7.57634       21.08334
C         -4.98553        6.48804       21.77679
N         -5.89504        5.65454       21.23152
C         -4.59840        3.74378       18.45320
C         -3.30463        3.62122       17.90555
C         -3.09968        3.94138       16.55101
N         -1.98846        3.93652       15.71492
C         -0.62809        3.57500       16.07925
N          0.29211        2.87158       12.73381
O          1.07589        3.70819       13.13036
C         -3.26760        2.68513       11.80236
C         -4.23089        1.73848       11.40091
H         -0.44257       -0.66293       15.00885
H         -1.13123       -1.82434       16.13569
H         -2.03730       -1.33867       14.70471
H         -1.25797        0.53040       17.00460
H         -2.19100        1.01476       15.61890
H         -3.08360       -1.15030       17.58995
H         -3.48440        0.52556       17.79942
H         -4.27676       -1.04462       15.29311
H         -5.27302       -0.94473       16.71490
H         -5.36986        1.52793       16.53792
H         -4.38051        1.49511       15.10149
H         -7.10391        0.11067       15.32483
H         -6.84930        1.71828       14.65487
H         -5.44443       -2.30009       10.27695
H         -2.52614       -1.11624       12.16280
H         -0.84427        0.52725       12.87007
H         -0.71386        5.11759       13.59816
H         -2.04120        5.01359       12.52218
H         -6.27986        4.81766       15.66762
H         -8.77621        5.95333       20.46391
H         -9.40498        4.83742       19.31182
H         -7.91211        4.01886       21.87795
H         -9.64363        4.10841       21.72159
H         -7.84034       -0.05889       20.65335
H         -8.03373        0.52723       19.00398
H         -5.84809       -0.66743       19.25518
H         -5.57542        1.03301       18.88966
H         -5.37135        0.44252       20.53796
H         -6.14482        7.11628       18.18798
H         -4.46462        8.64541       19.20112
H         -3.71122        8.22116       21.55877
H         -4.69135        6.28115       22.79521
H         -4.76302        3.48151       19.49206
H         -2.48203        3.27751       18.51634
H         -0.55175        3.39706       17.15174
H         -0.33144        2.66639       15.55522
H          0.05697        4.38031       15.81308
H         -3.50766        3.72900       11.66944
H         -5.16850        2.08045       10.98642
H         -7.04502       -0.65517       10.70655
