14
NA-014_p0.smi:1
C         -0.44780        1.42145        0.05288
C          0.01565       -0.04294        0.06591
N          1.46343       -0.14114        0.22167
C          1.90314       -1.50661       -0.02367
N          1.89728        0.31058        1.46141
O          2.75056        1.16570        1.35846
H         -1.52215        1.48161       -0.12304
H         -0.24564        1.92134        1.00071
H          0.04688        1.98636       -0.73806
H         -0.48667       -0.59687        0.86110
H         -0.27846       -0.50784       -0.87658
H          1.62187       -1.83322       -1.02556
H          2.98888       -1.57747        0.05381
H          1.46469       -2.19834        0.69728
