50
NA-017_p0.smi:1
N         -4.27421        1.29981        3.55179
C         -5.53229        0.98097        3.10157
N         -5.87710        1.04685        1.84936
C         -7.20268        0.72912        1.51564
N         -7.58468        0.94018        0.23182
C         -8.89700        0.74234       -0.05147
C         -9.81392        0.30509        0.93378
C        -11.31146        0.25604        0.66398
N        -12.02424        1.48330        1.03953
N        -12.56877        2.26681        0.08438
O        -13.12135        3.27851        0.46292
C        -11.91353        1.77369        2.41348
C        -12.49212        0.92219        3.37912
C        -12.32068        1.18333        4.75325
C        -11.55455        2.28833        5.18795
C        -11.41303        2.56974        6.65859
O        -12.33404        2.29999        7.43343
N        -10.23907        3.06577        7.06941
C         -9.94211        3.50421        8.43389
C         -8.43517        3.83936        8.57509
C         -7.45682        2.66236        8.32954
C         -7.04621        2.42110        6.87638
O         -6.13068        1.59802        6.66600
O         -7.62480        3.04211        5.96150
C        -10.78918        4.74041        8.80964
O        -11.31880        4.77887        9.93893
O        -10.91479        5.66873        7.98212
C        -10.98821        3.14893        4.22010
C        -11.17059        2.89501        2.84492
N         -9.41878        0.01485        2.19569
C         -8.12197        0.26042        2.49233
C         -7.64358        0.13296        3.91148
O         -8.37059       -0.31002        4.81028
N         -6.39049        0.56583        4.12043
H         -4.00144        1.31447        4.52617
H         -3.53177        1.62904        2.94908
H         -9.22446        0.97903       -1.05349
H        -11.46340        0.06332       -0.39901
H        -11.74238       -0.60103        1.18261
H        -13.06794        0.06087        3.07189
H        -12.77519        0.52323        5.47899
H         -9.47978        3.17699        6.39719
H        -10.18994        2.69005        9.11836
H         -8.17642        4.68271        7.93230
H         -8.26639        4.20051        9.59064
H         -6.54005        2.85931        8.88750
H         -7.86709        1.74082        8.74498
H        -10.41341        4.01153        4.52786
H        -10.71771        3.55463        2.11841
H         -6.12919        0.71021        5.09740
