24
NA-020_m0.smi:1
C          0.65760       -0.47525       -2.90896
N          1.01389        0.74137       -2.17951
N          0.00888        1.68346       -2.34647
O          0.29317        2.51010       -3.18718
C          1.34043        0.48922       -0.76469
O          2.37303       -0.48174       -0.78202
C          1.87521        1.72121        0.05468
C          0.74651        2.72015        0.39573
C          2.43421        1.23858        1.41632
C          3.00298        2.46292       -0.69562
H         -0.19587       -0.97158       -2.44540
H          0.39209       -0.23706       -3.93960
H          1.48352       -1.18534       -2.95157
H          0.47040        0.05939       -0.26329
H          0.41303        3.29194       -0.46829
H         -0.12221        2.21196        0.81600
H          1.07457        3.45864        1.12812
H          3.32993        0.62521        1.31695
H          2.71351        2.07786        2.05459
H          1.69356        0.65199        1.96188
H          2.65076        2.88687       -1.63623
H          3.39841        3.28773       -0.10187
H          3.83853        1.80327       -0.93098
H          3.07171       -0.13720       -0.23687
