44
NA-033_m0.smi:1
O         -1.48995        3.88303        5.82031
N         -0.91045        3.05160        5.15487
N         -1.78499        2.31661        4.36434
C         -1.66132        2.65547        2.94023
C         -0.36398        2.08090        2.33262
N         -0.29122        0.63844        2.56943
C          0.63184       -0.12349        1.82016
C          1.79482        0.45286        1.25675
C          2.71499       -0.32036        0.50217
C          2.46418       -1.70521        0.32319
C          1.30309       -2.28255        0.88337
C          0.39631       -1.50310        1.61953
F         -0.71737       -2.08826        2.12585
C          3.41970       -2.56654       -0.44297
O          3.16710       -3.76550       -0.62332
C          4.66571       -1.91316       -0.95156
C          5.72874       -2.64060       -1.66671
O          5.73972       -3.84684       -1.91811
O          6.77305       -1.85537       -2.06535
C          4.80196       -0.58104       -0.72975
N          3.87884        0.23013       -0.07919
C          4.10544        1.66618        0.08189
C          4.68502        2.48357       -1.05514
C          3.23847        2.65479       -0.66941
C         -0.37162        0.28602        3.98869
C         -1.66042        0.87408        4.60345
O         -2.76226        0.25630        3.96895
H         -2.52413        2.26652        2.39843
H         -1.69246        3.73890        2.81651
H         -0.34414        2.28916        1.26113
H          0.50404        2.57836        2.76947
H          1.98596        1.50016        1.42080
H          1.09373       -3.33415        0.75313
H          5.67662       -0.03403       -1.05174
H          4.41709        1.91850        1.09485
H          5.36863        3.28995       -0.79620
H          4.88402        1.99501       -2.00718
H          2.48806        2.26000       -1.35205
H          2.96328        3.57444       -0.15635
H         -0.34606       -0.79380        4.14278
H          0.50263        0.68386        4.50790
H         -1.70770        0.67176        5.67544
H          7.42279       -2.37789       -2.51978
H         -2.39865       -0.09645        3.15938
