26
NA-027_m0.smi:1
C          2.48546       -2.16023       -0.37271
O          1.16965       -2.55547       -0.01277
C          0.30063       -1.44581        0.15992
C         -1.09048       -1.96668        0.55831
N         -2.02735       -0.87159        0.82754
N         -2.26734       -0.12861       -0.32589
O         -1.87565        1.01423       -0.22055
C         -3.27077       -1.35274        1.43896
O         -2.91793       -1.83931        2.72130
C         -4.27782       -0.21495        1.71153
O         -5.42098       -0.78586        2.33585
C         -6.41888        0.18288        2.62352
H          3.11541       -3.04162       -0.49395
H          2.49154       -1.61303       -1.31654
H          2.93548       -1.53128        0.39682
H          0.68888       -0.78450        0.93679
H          0.25187       -0.87263       -0.76756
H         -1.49372       -2.61279       -0.22287
H         -0.97169       -2.58902        1.44536
H         -3.73025       -2.13606        0.83248
H         -3.83611        0.55963        2.34236
H         -4.58735        0.26060        0.77912
H         -7.27250       -0.29742        3.10219
H         -6.04343        0.95003        3.30239
H         -6.77597        0.66810        1.71390
H         -3.70438       -1.73154        3.25198
