32
NA-024_m1.smi:1
O          2.74323        6.02233       -3.14407
N          3.08478        5.35028       -2.19389
N          3.42681        4.05280       -2.56649
C          2.31005        3.13964       -2.32501
C          2.63844        1.72651       -2.84174
N          3.84863        1.17998       -2.17331
C          4.17808       -0.21094       -2.60276
C          5.36725       -0.83616       -1.85382
C          5.22420       -2.34980       -2.05277
C          3.74401       -2.60331       -2.37155
C          3.05832       -1.23240       -2.34142
C          4.97813        2.12928       -2.35445
C          4.61310        3.55138       -1.86473
O          5.67309        4.43762       -2.19008
H          2.06408        3.11385       -1.26183
H          1.42445        3.51198       -2.84222
H          1.77642        1.08663       -2.65368
H          2.78277        1.74424       -3.92352
H          4.40289       -0.20882       -3.67174
H          6.33194       -0.47540       -2.21299
H          5.30590       -0.60857       -0.78832
H          5.84381       -2.68185       -2.88753
H          5.55228       -2.90008       -1.16960
H          3.65158       -3.04967       -3.36313
H          3.28503       -3.29473       -1.66324
H          2.62212       -1.07211       -1.35406
H          2.25080       -1.17331       -3.07229
H          5.85274        1.78572       -1.80242
H          5.26251        2.15378       -3.40803
H          4.44313        3.56050       -0.78539
H          3.64938        1.14907       -1.18477
H          6.18110        4.58548       -1.39627
