89
NA-040_m0.smi:1
C         -8.35396       -6.09663        0.75458
C         -7.08524       -6.13217        1.61860
C         -6.39869       -7.50775        1.65275
C         -7.21347       -8.57903        2.39477
C         -6.48352       -9.92748        2.49059
C         -7.35021      -11.03623        3.11335
O         -7.75380      -10.71170        4.44016
C         -6.97708      -11.01887        5.48787
O         -5.87043      -11.56120        5.41255
N         -7.63526      -10.62443        6.63990
C         -7.21084      -10.74584        7.96132
N         -6.05198      -11.19672        8.30632
C         -8.16915      -10.27543        9.01414
C         -7.68985       -9.78114       10.24872
C         -8.58408       -9.33311       11.24092
C         -9.97750       -9.37516       11.02045
N        -10.88121       -8.90488       11.99437
N        -11.80337       -9.64175       12.65111
O        -11.78602      -10.83865       12.45133
C        -10.87181       -7.44747       12.15917
O         -9.78716       -6.96430       12.92150
C        -10.93988       -6.67517       10.86590
N         -9.87414       -6.00560       10.41156
C        -10.33217       -5.52217        9.20170
C         -9.66333       -4.77333        8.21460
C        -10.31726       -4.40404        7.01626
C         -9.55334       -3.62784        5.97349
O         -8.90417       -2.64416        6.34736
N         -9.55560       -4.06782        4.68511
C         -8.91588       -3.24823        3.63728
C         -9.66418       -1.93615        3.29227
C        -11.02079       -2.15619        2.62596
O        -12.06725       -1.77499        3.15455
O        -10.91991       -2.78772        1.44660
C        -12.09458       -3.13486        0.73255
C        -11.72155       -4.09122       -0.40286
C        -10.06511       -5.34133        4.28702
C         -9.49706       -6.51045        4.84183
C         -9.98645       -7.76993        4.45870
C        -11.01233       -7.83009        3.50480
C        -11.50663       -6.62839        2.97926
N        -11.04530       -5.41950        3.35651
C        -11.68275       -4.73700        6.83422
C        -12.37188       -5.48558        7.81047
C        -11.69229       -5.88315        8.97611
N        -12.05144       -6.62851       10.09277
C        -13.34531       -7.23951       10.35513
C        -10.46085       -9.88586        9.79629
C         -9.56652      -10.32909        8.80152
H         -8.75859       -5.08593        0.69674
H         -8.14874       -6.42561       -0.26450
H         -9.13675       -6.73556        1.16225
H         -6.37919       -5.39799        1.22797
H         -7.31944       -5.81173        2.63452
H         -6.18565       -7.83831        0.63500
H         -5.42978       -7.39970        2.14280
H         -7.43600       -8.22309        3.40042
H         -8.17256       -8.72656        1.89739
H         -6.18477      -10.24703        1.49157
H         -5.56032       -9.81264        3.05978
H         -8.24853      -11.17579        2.51169
H         -6.82065      -11.99016        3.09340
H         -5.52943      -11.46229        7.46981
H         -6.62672       -9.73662       10.43890
H         -8.19029       -8.95818       12.17483
H        -11.76683       -7.18276       12.72504
H         -8.62960       -4.49908        8.37209
H         -7.89767       -3.00961        3.94722
H         -8.79618       -3.84118        2.73072
H         -9.80043       -1.32345        4.18331
H         -9.05564       -1.34468        2.60812
H        -12.81313       -3.61654        1.39787
H        -12.56476       -2.23419        0.33587
H        -12.60452       -4.37239       -0.97669
H        -11.00988       -3.63096       -1.08843
H        -11.27282       -5.00514       -0.01298
H         -8.69800       -6.44842        5.56727
H         -9.57426       -8.67380        4.88193
H        -11.41105       -8.77968        3.17631
H        -12.29114       -6.63390        2.23699
H        -12.20307       -4.43027        5.93387
H        -13.40735       -5.75788        7.66119
H        -13.25930       -8.32579       10.32340
H        -13.71157       -6.93808       11.33695
H        -14.07524       -6.92836        9.60779
H        -11.52441       -9.93513        9.61122
H         -9.96947      -10.72082        7.87878
H         -8.53744      -10.20643        6.46966
H         -9.36503       -6.36507       12.30353
