28
NA-037_p0.smi:1
C         -0.64880       -2.59796       -0.75156
C         -0.66735       -1.08326       -0.47244
C         -1.20811       -0.32698       -1.70933
N         -0.68888        1.02963       -1.86413
N          0.67030        1.07691       -2.14901
O          0.88242        1.45507       -3.28099
C         -1.11092        2.00499       -0.86359
C         -0.56910        1.72605        0.55093
C         -1.34877        0.64825        1.28927
C         -2.03292        1.00619        2.47210
C         -2.78335        0.05308        3.18245
C         -2.85769       -1.26759        2.71141
Cl        -3.78171       -2.44165        3.57496
C         -2.17859       -1.63217        1.53453
C         -1.41144       -0.68539        0.80945
H         -0.22518       -3.15313        0.08605
H         -1.64771       -2.98612       -0.95320
H         -0.03442       -2.82365       -1.62375
H          0.37824       -0.81375       -0.31739
H         -0.92689       -0.86563       -2.61554
H         -2.29877       -0.31322       -1.69845
H         -0.75060        2.98069       -1.19301
H         -2.19916        2.07650       -0.84458
H          0.48994        1.46681        0.53089
H         -0.62392        2.65360        1.12217
H         -1.99120        2.02059        2.84435
H         -3.30437        0.33619        4.08580
H         -2.26577       -2.65703        1.20846
