18
NA-002_m1.smi:1
C         -2.13910       -0.63712       -2.16785
C         -1.73072       -1.52066       -0.97667
N         -0.30569       -1.38576       -0.65748
N         -0.00901       -0.08725       -0.24523
O          0.74747        0.47358       -1.00970
C          0.13991       -2.38685        0.31994
C          1.61883       -2.22268        0.71241
O          0.02430       -3.64832       -0.31512
H         -3.18412       -0.80632       -2.42884
H         -2.02932        0.42514       -1.94756
H         -1.53966       -0.86222       -3.05067
H         -2.33042       -1.27578       -0.09848
H         -1.96597       -2.55368       -1.23366
H         -0.49433       -2.35193        1.20873
H          1.78976       -1.29722        1.26330
H          1.94634       -3.03673        1.35996
H          2.26948       -2.21250       -0.16307
H         -0.37543       -4.24896        0.30873
