90
NA-040_m0.smi:1
C         -9.26959      -14.64453       -4.68984
C         -9.64615      -15.56329       -3.51909
C         -8.43689      -16.05142       -2.70698
C         -7.77016      -14.94954       -1.86796
C         -6.54789      -15.46874       -1.09689
C         -5.80771      -14.38170       -0.30967
O         -5.13485      -13.52082       -1.22063
C         -5.37893      -12.19914       -1.22943
O         -6.13479      -11.59320       -0.46698
N         -4.60243      -11.46208       -2.18266
C         -3.85435      -11.91511       -3.21482
N         -3.01587      -11.05656       -3.80573
C         -3.90359      -13.27386       -3.78369
C         -5.12211      -13.82451       -4.23832
C         -5.14637      -15.09720       -4.84594
C         -3.95403      -15.83444       -5.02721
N         -3.98507      -17.06895       -5.71096
N         -4.44119      -17.27039       -6.96782
O         -4.77215      -16.28639       -7.59641
C         -3.56495      -18.22832       -4.91973
O         -2.17278      -18.32258       -4.70729
C         -4.27374      -18.38770       -3.60116
N         -3.62133      -18.20931       -2.44739
C         -4.60339      -18.48140       -1.51456
C         -4.55309      -18.44202       -0.10779
C         -5.69125      -18.76267        0.66833
C         -5.62064      -18.63789        2.16866
O         -5.09619      -17.62020        2.63474
N         -6.11046      -19.64353        2.94499
C         -6.32740      -19.42025        4.38961
C         -7.75873      -18.96019        4.76692
C         -8.12834      -17.56012        4.27887
O         -7.99017      -16.56951        4.99915
O         -8.58857      -17.55483        3.01729
C         -8.95129      -16.32543        2.40840
C         -9.65079      -16.60797        1.07666
C         -6.39034      -20.95486        2.45274
C         -5.36245      -21.67556        1.80289
C         -5.60927      -22.97706        1.33605
C         -6.87882      -23.53402        1.54856
C         -7.84175      -22.76918        2.22167
N         -7.60281      -21.51956        2.66935
C         -6.90261      -19.11084        0.02092
C         -6.97592      -19.15324       -1.38588
C         -5.83469      -18.83152       -2.14153
N         -5.57598      -18.74723       -3.50428
C         -6.51432      -19.00221       -4.58650
C         -2.73863      -15.28077       -4.56302
C         -2.71214      -14.01276       -3.94729
H        -10.15452      -14.37353       -5.26651
H         -8.81035      -13.71749       -4.34722
H         -8.57279      -15.13486       -5.37010
H        -10.35626      -15.05820       -2.86267
H        -10.17225      -16.43212       -3.91746
H         -8.76465      -16.85072       -2.04136
H         -7.70585      -16.50343       -3.37799
H         -7.46635      -14.12901       -2.51464
H         -8.49303      -14.53065       -1.16688
H         -6.86841      -16.24305       -0.40097
H         -5.84947      -15.94153       -1.78660
H         -6.50081      -13.85338        0.34661
H         -5.05863      -14.84314        0.33444
H         -2.83621      -10.12504       -3.46497
H         -6.04082      -13.26261       -4.14682
H         -6.08552      -15.49461       -5.20265
H         -3.81866      -19.11450       -5.50451
H         -3.63236      -18.15250        0.37879
H         -6.12324      -20.35719        4.90927
H         -5.59744      -18.72021        4.79921
H         -8.49718      -19.66700        4.38878
H         -7.86264      -18.96969        5.85201
H         -9.61809      -15.76186        3.06296
H         -8.05916      -15.71879        2.24659
H         -9.93944      -15.67828        0.58662
H         -8.99956      -17.15334        0.39552
H        -10.55371      -17.20035        1.22471
H         -4.38517      -21.23738        1.65448
H         -4.83734      -23.53771        0.82888
H         -7.11141      -24.53328        1.20714
H         -8.82744      -23.16858        2.40972
H         -7.78936      -19.32993        0.60464
H         -7.90333      -19.41093       -1.87719
H         -7.47539      -19.33181       -4.19171
H         -6.67541      -18.09156       -5.16404
H         -6.12800      -19.78126       -5.24440
H         -1.80669      -15.80731       -4.70660
H         -1.76706      -13.60424       -3.61612
H         -4.65151      -10.45902       -2.15392
H         -2.50407      -11.37032       -4.61690
H         -2.12071      -18.38206       -3.75172
