41
NA-030_p1.smi:1
C          0.91001       -1.24821       -0.39405
C          0.04899       -1.33875       -1.66962
C         -1.38213       -1.80726       -1.35825
N          0.64433       -2.20223       -2.69500
C          1.83040       -1.61175       -3.31544
C          2.22366       -2.31827       -4.63096
O          3.44709       -1.75120       -5.06429
C          1.19582       -2.10917       -5.75746
O          1.53516       -2.98090       -6.83082
C          0.73572       -2.98851       -7.95700
C         -0.40847       -2.16362       -8.10666
C         -1.18413       -2.21588       -9.27989
C         -0.83242       -3.09047      -10.32268
C          0.29957       -3.91792      -10.19387
C          0.64934       -4.79444      -11.24224
C          1.77895       -5.62570      -11.12244
C          2.56196       -5.58306       -9.95393
C          2.21676       -4.70941       -8.90434
C          1.08485       -3.86884       -9.01207
N          0.84626       -3.51637       -2.27854
O          0.20457       -4.30560       -2.93858
H          0.44754       -0.58080        0.33379
H          1.03045       -2.21815        0.08951
H          1.90374       -0.85022       -0.59913
H         -0.03558       -0.33571       -2.09153
H         -1.87786       -1.11492       -0.67708
H         -1.98654       -1.85892       -2.26472
H         -1.39806       -2.79214       -0.89010
H          1.64807       -0.55607       -3.52170
H          2.65993       -1.65483       -2.60846
H          2.37753       -3.38514       -4.46019
H          0.19910       -2.36685       -5.39528
H          1.17711       -1.06558       -6.07755
H         -0.71923       -1.47578       -7.33432
H         -2.05364       -1.58104       -9.37969
H         -1.43591       -3.12196      -11.21959
H          0.05324       -4.83397      -12.14369
H          2.04446       -6.29665      -11.92798
H          3.42974       -6.22176       -9.86124
H          2.83111       -4.69262       -8.01518
H          3.63805       -2.13670       -5.91568
