31
NA-039_m1.smi:1
O          5.24936       -3.27240       -1.78472
N          4.33290       -3.12269       -1.00439
N          4.10240       -1.78189       -0.71873
C          4.82104       -1.35506        0.49881
C          4.44740        0.08644        0.93112
C          2.92617        0.09018        1.17329
C          2.41517        0.04198       -0.27834
C          3.36463        1.02209       -0.94073
C          3.17060        1.83663       -2.06852
C          4.22755        2.67888       -2.48849
N          4.05310        3.46724       -3.57925
C          5.08953        4.25652       -3.94568
C          6.30463        4.26762       -3.23084
N          6.49822        3.49006       -2.14030
C          5.47065        2.69091       -1.75656
C          5.62515        1.86344       -0.61970
C          4.55538        1.04179       -0.23466
C          2.67205       -1.41629       -0.76083
O          2.26270       -1.55367       -2.10994
H          4.60409       -2.04652        1.31447
H          5.89319       -1.41863        0.30945
H          5.01110        0.41981        1.80362
H          2.57106       -0.72865        1.80066
H          2.62324        1.02542        1.64684
H          1.36838        0.33974       -0.35645
H          2.23439        1.83093       -2.60775
H          4.95435        4.88567       -4.81433
H          7.12099        4.90544       -3.53967
H          6.54933        1.86830       -0.06025
H          2.10123       -2.11317       -0.14360
H          2.26381       -0.67768       -2.48406
