23
NA-020_p0.smi:1
C         -0.21353       -0.10012       -1.84292
N         -0.28368        0.21497       -0.42282
C          0.99550       -0.08216        0.22432
C          1.22456        0.62242        1.59209
C          0.94672        2.13546        1.49094
C          0.36938        0.00582        2.71754
C          2.70460        0.42728        1.97176
N         -1.35421       -0.43534        0.17325
O         -2.29800        0.30673        0.34309
H         -0.01392       -1.16087       -2.00224
H         -1.15481        0.14660       -2.33581
H          0.57358        0.47400       -2.33318
H          1.11945       -1.16280        0.31804
H          1.78925        0.24921       -0.44783
H          1.53770        2.59639        0.69846
H         -0.10298        2.34030        1.27686
H          1.18968        2.64881        2.42211
H          0.48215       -1.07833        2.75701
H          0.65666        0.39860        3.69372
H         -0.69079        0.22526        2.59772
H          3.37135        0.86117        1.22517
H          2.94111        0.89773        2.92716
H          2.95772       -0.63038        2.05837
