12
NA-004_m0.smi:1
C         -0.65363       -0.66607       -0.97079
N         -0.25347        0.46284       -0.13835
C          1.11986        0.33198        0.33317
O          1.12191       -0.72561        1.27592
N         -0.44288        1.66437       -0.80598
O         -1.35161        2.31005       -0.32899
H         -0.58309       -1.60721       -0.42473
H         -1.68883       -0.55181       -1.29420
H         -0.02554       -0.74057       -1.85957
H          1.81808        0.14385       -0.48491
H          1.42852        1.25257        0.83300
H          1.69300       -0.46552        1.99393
