18
NA-011_p0.smi:1
C          0.29555       -0.15747       -0.44473
N          1.43827        0.09564        0.44122
N          1.83484       -0.78648        1.39032
O          1.17976       -1.80075        1.50923
C          2.07622        1.33329        0.21297
C          3.45290        1.46429        0.51089
C          4.12649        2.68374        0.30219
C          3.43041        3.79609       -0.20461
C          2.05927        3.68553       -0.49913
C          1.38652        2.46524       -0.29097
H         -0.61394        0.28044       -0.03199
H          0.45629        0.25492       -1.44202
H          0.11602       -1.22397       -0.58303
H          4.01219        0.62393        0.89725
H          5.17998        2.76377        0.53182
H          3.94653        4.73329       -0.36428
H          1.51883        4.53978       -0.88274
H          0.33019        2.42442       -0.51367
