30
NA-012_m0.smi:1
C         -3.98931        0.53411        1.23331
C         -3.83847       -0.67882        0.30781
C         -3.61656       -0.27762       -1.15729
C         -3.46578       -1.50195       -2.07920
N         -3.18133       -1.10491       -3.46077
N         -4.24691       -0.42906       -4.04723
O         -3.94138        0.69364       -4.38876
C         -2.68042       -2.17818       -4.32351
O         -1.39369       -2.51165       -3.83459
C         -3.59058       -3.42582       -4.37510
C         -3.15226       -4.44557       -5.43977
C         -4.08851       -5.65840       -5.51729
H         -4.14438        0.21912        2.26584
H         -3.09878        1.16336        1.21008
H         -4.84193        1.14970        0.94419
H         -3.00319       -1.29123        0.65098
H         -4.72943       -1.30380        0.38563
H         -4.45197        0.34155       -1.48726
H         -2.72286        0.34410       -1.23142
H         -2.65298       -2.12270       -1.70072
H         -4.36857       -2.11351       -2.04701
H         -2.56020       -1.76798       -5.32892
H         -3.62577       -3.91461       -3.40050
H         -4.61303       -3.11586       -4.59653
H         -3.11172       -3.96007       -6.41587
H         -2.13942       -4.78929       -5.22570
H         -3.75174       -6.36212       -6.27938
H         -4.12412       -6.19266       -4.56711
H         -5.10593       -5.35863       -5.77126
H         -0.81929       -2.61248       -4.58839
