20
NA-016_p0.smi:1
C          0.61457        0.16380        0.73857
N          1.43478       -0.37710       -0.34077
C          0.78062       -1.55715       -0.91223
C          1.63274       -2.12984       -2.06280
N          1.82511       -1.12160       -3.10206
N          2.54119       -1.62247       -4.17681
O          1.89382       -1.59763       -5.20145
C          2.45576        0.06982       -2.53953
C          1.60077        0.63488       -1.38735
H          1.08691        1.04145        1.18308
H         -0.37611        0.45820        0.38647
H          0.48289       -0.57273        1.53304
H          0.65117       -2.31954       -0.14178
H         -0.21756       -1.30536       -1.27744
H          2.59931       -2.47082       -1.68733
H          1.13315       -3.00027       -2.49111
H          3.46062       -0.16888       -2.18627
H          2.56420        0.82459       -3.32008
H          0.62938        0.95820       -1.76814
H          2.08769        1.52012       -0.97404
