41
NA-038_p0.smi:1
C         -0.74599        1.59997        2.13601
N         -1.09845        0.42116        1.35892
C         -1.74043        0.81523        0.10796
C         -2.36861       -0.39315       -0.61406
C         -3.14612       -0.00087       -1.88949
O         -3.67889       -1.16376       -2.52231
C         -4.77817       -1.81587       -1.99482
C         -5.54873       -1.31953       -0.91198
C         -6.66114       -2.03566       -0.43201
C         -7.02726       -3.25620       -1.02506
C         -6.27937       -3.76442       -2.10419
C         -6.65063       -4.98854       -2.69872
C         -5.90932       -5.50446       -3.77836
C         -4.79464       -4.79783       -4.26665
C         -4.42000       -3.57518       -3.67620
C         -5.15602       -3.04561       -2.59094
C         -2.26298        0.64020       -2.91926
C         -2.18868        1.97391       -3.23546
C         -1.22657        2.26058       -4.24816
C         -0.57246        1.14088       -4.69008
S         -1.12566       -0.29117       -3.86678
N          0.00740       -0.39366        1.15480
O         -0.10005       -1.45491        1.73095
H         -1.62902        2.20137        2.35544
H         -0.29971        1.30963        3.08805
H         -0.02992        2.22599        1.60134
H         -2.52819        1.53928        0.32182
H         -1.01630        1.31768       -0.53570
H         -1.59470       -1.11317       -0.88175
H         -3.02896       -0.91010        0.08128
H         -3.94299        0.70383       -1.65043
H         -5.31259       -0.38762       -0.42150
H         -7.23702       -1.64517        0.39557
H         -7.88425       -3.79749       -0.64800
H         -7.50584       -5.53825       -2.33003
H         -6.19651       -6.44323       -4.23200
H         -4.22459       -5.19362       -5.09607
H         -3.56020       -3.04848       -4.06621
H         -2.78742        2.74930       -2.77710
H         -1.05055        3.26518       -4.60943
H          0.20174        1.06927       -5.44672
