31
NA-024_m0.smi:1
O         -1.85799        7.89983       -1.85569
N         -1.53284        7.03411       -2.64055
N         -1.66024        5.75999       -2.09683
C         -2.92508        5.14767       -2.50690
C         -3.08586        3.75035       -1.88027
N         -1.99064        2.84427       -2.24514
C         -2.16437        1.51312       -1.64736
C         -3.44892        0.78017       -2.09555
C         -3.09518       -0.69864       -2.30762
C         -1.67274       -0.86258       -1.78240
C         -1.04512        0.51299       -1.98113
C         -0.73323        3.47428       -1.82930
C         -0.53445        4.88310       -2.43507
O          0.61930        5.46702       -1.85993
H         -3.75410        5.78613       -2.19809
H         -2.96623        5.07690       -3.59522
H         -3.15104        3.84598       -0.79424
H         -4.04410        3.34247       -2.20408
H         -2.20133        1.60616       -0.55924
H         -4.23251        0.89160       -1.34452
H         -3.84223        1.18598       -3.02909
H         -3.79642       -1.36981       -1.80984
H         -3.12253       -0.93151       -3.37333
H         -1.69582       -1.10616       -0.71894
H         -1.12359       -1.65478       -2.29302
H         -0.73570        0.62121       -3.02229
H         -0.16076        0.64595       -1.35634
H         -0.69864        3.53952       -0.73960
H          0.11414        2.85423       -2.12394
H         -0.42480        4.82231       -3.52039
H          1.35113        5.27847       -2.44124
