39
NA-023_m0.smi:1
C          4.03443       -0.25483       -0.99261
N          3.00060       -0.23079        0.03807
N          3.07278        0.95526        0.75936
O          3.43417        0.77021        1.90187
C          1.66270       -0.46689       -0.51224
O          1.67779       -1.78083       -1.03968
C          0.57611       -0.48106        0.58111
O         -0.66863       -0.74129       -0.05986
C         -1.78495       -0.76897        0.82682
C         -2.99423       -1.41052        0.16001
C         -3.18899       -1.30363       -1.23494
C         -4.31817       -1.88754       -1.84245
C         -5.26229       -2.57783       -1.05813
C         -5.07813       -2.68142        0.33414
C         -3.94884       -2.09730        0.94117
C         -2.13447        0.61788        1.35469
C         -2.46024        0.79972        2.71598
C         -2.78956        2.08045        3.20206
C         -2.79898        3.18514        2.32852
C         -2.48157        3.00854        0.96788
C         -2.15262        1.72777        0.48217
H          3.85622        0.51559       -1.74398
H          5.01551       -0.07762       -0.55049
H          4.07758       -1.21963       -1.49848
H          1.42135        0.26412       -1.28678
H          0.78956       -1.23799        1.33866
H          0.53260        0.48351        1.08863
H         -1.52178       -1.40740        1.67305
H         -2.47132       -0.77040       -1.84278
H         -4.46057       -1.80374       -2.91121
H         -6.12962       -3.02544       -1.52423
H         -5.80469       -3.20780        0.93797
H         -3.81661       -2.17621        2.01144
H         -2.45794       -0.04381        3.39240
H         -3.03631        2.21504        4.24637
H         -3.05220        4.16814        2.70192
H         -2.49156        3.85550        0.29555
H         -1.91175        1.59407       -0.56337
H          0.77126       -2.07599       -0.99396
