26
NA-031_m0.smi:1
C          0.30667       -5.01372        0.48202
N         -0.25539       -3.67070        0.52180
C          0.12906       -2.66055       -0.26608
O          1.03793       -2.78354       -1.09002
C         -0.55655       -1.36211       -0.04182
C         -1.85923       -1.04836        0.30544
N         -2.92601       -1.93899        0.54949
C         -3.22845       -2.13129        1.95857
O         -2.40190       -3.09624        2.58796
N         -3.59281       -2.65464       -0.38255
O         -3.26761       -2.47656       -1.53853
N         -2.00914        0.33540        0.40230
C         -0.81019        0.80453        0.07817
N          0.10211       -0.13534       -0.20466
C          1.48433        0.12446       -0.57450
H         -0.18347       -5.64731        1.22142
H          0.16538       -5.46668       -0.50024
H          1.37461       -4.99665        0.70385
H         -3.14907       -1.18248        2.49286
H         -4.26976       -2.44413        2.05389
H         -0.58798        1.86244        0.05039
H          1.71702        1.18326       -0.45547
H          2.15669       -0.45112        0.06206
H          1.64749       -0.15316       -1.61604
H         -0.99099       -3.49096        1.20460
H         -2.81025       -3.31114        3.42239
