19
NA-013_m0.smi:1
O         -1.76307        0.92883        0.21225
N         -0.57404        0.88740       -0.02664
N         -0.00771       -0.33885       -0.15407
C         -0.76562       -1.58026        0.04188
O         -1.39765       -2.06501       -1.12764
C          1.36561       -0.52860       -0.42286
C          2.29138        0.45373        0.00311
C          3.66995        0.30689       -0.24643
C          4.14539       -0.82439       -0.93190
F          5.47002       -0.96578       -1.17273
C          3.24015       -1.80690       -1.36911
C          1.86144       -1.66060       -1.11884
H         -0.13267       -2.36368        0.46367
H         -1.53275       -1.41820        0.80121
H          1.95536        1.33149        0.53613
H          4.36400        1.06344        0.08896
H          3.60375       -2.67322       -1.90189
H          1.19598       -2.42764       -1.48659
H         -2.15955       -2.56591       -0.84916
