20
NA-025_m1.smi:1
C         -0.82773       -1.32571        0.75873
N         -0.42165        0.02847        0.39172
N         -1.22879        0.98779        0.98962
O         -1.95979        1.52967        0.18828
C          1.00452        0.32242        0.54890
O          1.66793       -0.48176       -0.40462
C          1.53200        0.04777        1.97831
C          2.88760        0.71774        2.30473
C          4.09417        0.10301        1.59640
O          3.93289       -0.88328        0.84977
O          5.20876        0.62311        1.79495
H         -0.23615       -2.07531        0.23287
H         -0.72295       -1.49704        1.83037
H         -1.87301       -1.48873        0.49470
H          1.17168        1.36973        0.28867
H          0.81295        0.43673        2.70010
H          1.58787       -1.02381        2.17652
H          2.83873        1.78216        2.06994
H          3.06402        0.65008        3.37923
H          2.52663       -0.71334       -0.01052
