19
NA-011_m0.smi:1
O         -1.57434        1.31606        0.18101
N         -0.44401        0.94275        0.41677
N         -0.01361       -0.17601       -0.21844
C         -0.83772       -0.89091       -1.19992
O         -1.68541       -1.87550       -0.63916
C          1.28148       -0.71167       -0.04262
C          2.34454        0.15730        0.30097
C          3.65161       -0.33347        0.48788
C          3.91741       -1.70654        0.33879
C          2.87180       -2.58645        0.00565
C          1.56509       -2.09429       -0.18179
H         -1.45925       -0.17347       -1.73869
H         -0.21831       -1.34462       -1.97628
H          2.17061        1.21775        0.41728
H          4.45118        0.34710        0.74581
H          4.92065       -2.08455        0.48298
H          3.06972       -3.64382       -0.10296
H          0.78530       -2.80345       -0.41914
H         -2.43693       -1.96363       -1.21918
