51
NA-042_m1.smi:1
C         -1.25982        3.11461       -2.36772
O         -0.29476        2.46140       -1.55915
C          0.31835        1.36165       -2.02022
O          0.10196        0.84958       -3.12246
C          1.34690        0.83413       -0.98611
C          2.62216        1.73104       -0.82934
C          2.41463        2.84489        0.21322
C          3.17379        2.34030       -2.13738
N          1.70289       -0.60980       -1.13006
N          2.48700       -0.85554       -2.25748
O          3.61987       -1.17826       -1.96830
C          0.57617       -1.55247       -1.04169
O         -0.07465       -1.28450        0.18615
C          1.01326       -3.01270       -1.09866
C          0.59462       -3.84219       -2.15953
C          1.00341       -5.18950       -2.21174
C          1.83170       -5.73685       -1.20702
C          2.28560       -7.14060       -1.27181
C          3.67817       -7.38653       -1.29296
C          4.18902       -8.69408       -1.37629
C          3.30517       -9.78289       -1.44023
C          1.91769       -9.55365       -1.41414
C          1.38661       -8.24565       -1.32521
C         -0.08581       -8.09510       -1.27317
N         -0.88284       -8.41913       -2.30046
N         -2.10979       -8.20524       -1.81162
N         -2.02788       -7.80142       -0.53905
N         -0.74555       -7.74037       -0.16240
C          2.24999       -4.89818       -0.15038
C          1.84418       -3.55046       -0.09312
H         -1.65601        3.98496       -1.84494
H         -0.81741        3.45437       -3.30502
H         -2.09243        2.44845       -2.59715
H          0.84560        0.91027       -0.02173
H          3.41355        1.10060       -0.42041
H          1.65886        3.56354       -0.10441
H          2.10006        2.43500        1.17379
H          3.33859        3.39766        0.38695
H          2.49784        3.08441       -2.56019
H          4.12700        2.83933       -1.95942
H          3.35041        1.58196       -2.89957
H         -0.13396       -1.37879       -1.85174
H         -0.03984       -3.44944       -2.94205
H          0.67681       -5.81031       -3.03474
H          4.36878       -6.55546       -1.25422
H          5.25766       -8.85943       -1.39470
H          3.68812      -10.79205       -1.50592
H          1.23972      -10.39440       -1.45559
H          2.88937       -5.29185        0.62773
H          2.17371       -2.92254        0.72327
H         -0.83595       -1.85519        0.22412
