27
NA-029_m0.smi:1
C          0.80687       -1.18754       -2.16431
N          1.16602       -0.01113       -1.37710
N          1.33333        1.08666       -2.21036
O          2.49962        1.40062       -2.31715
C          0.21409        0.24219       -0.28930
O          0.27735       -0.87928        0.57425
C          0.57743        1.46487        0.61168
O         -0.00794        1.25441        1.89274
C          0.13028        2.80345        0.03734
C          1.08540        3.77756       -0.32721
C          0.66982        5.01516       -0.85589
C         -0.70175        5.29017       -1.01771
C         -1.65996        4.32618       -0.64726
O         -2.99079        4.58319       -0.79603
C         -1.24435        3.08844       -0.11940
H         -0.17565       -1.06664       -2.62248
H          1.53489       -1.34899       -2.96015
H          0.78919       -2.09160       -1.55524
H         -0.80407        0.33592       -0.67183
H          1.65943        1.48780        0.76213
H          2.14212        3.57810       -0.20939
H          1.40489        5.75619       -1.13810
H         -1.00507        6.24496       -1.42480
H         -1.98159        2.35217        0.17017
H          0.15387       -0.46287        1.43262
H          0.27432        1.97745        2.44457
H         -3.16632        5.44659       -1.15911
