50
NA-042_p0.smi:1
C         -1.16352       -4.34670       -2.64995
O         -0.62704       -3.31679       -1.83598
C         -1.27498       -2.95383       -0.71598
O         -2.32765       -3.45820       -0.31885
C         -0.52671       -1.81532        0.02516
C         -0.38447       -0.50879       -0.82014
C          0.17899        0.65061        0.02632
C         -1.70510       -0.04724       -1.47200
N          0.77127       -2.22790        0.63079
C          0.66383       -3.28943        1.63266
C         -0.16611       -2.89358        2.84404
C         -1.32270       -3.62283        3.18559
C         -2.09014       -3.24785        4.30561
C         -1.71706       -2.14526        5.10600
C         -2.54575       -1.74565        6.26109
C         -3.90494       -1.43386        6.02520
C         -4.75346       -1.02418        7.06914
C         -4.24860       -0.92003        8.37488
C         -2.90031       -1.23267        8.62528
C         -2.03414       -1.65138        7.58833
C         -0.63697       -1.99021        7.94415
N          0.23685       -1.07841        8.39212
N          1.32549       -1.80816        8.66140
N          1.08139       -3.09875        8.40836
N         -0.17286       -3.24682        7.96680
C         -0.55888       -1.41858        4.75148
C          0.21280       -1.78843        3.63284
N          1.75883       -2.51005       -0.30763
O          2.75280       -1.83686       -0.13880
H         -0.51830       -4.51372       -3.51226
H         -1.23826       -5.28305       -2.09560
H         -2.15550       -4.07821       -3.01537
H         -1.17704       -1.53943        0.85560
H          0.31923       -0.69408       -1.63330
H         -0.47140        0.87682        0.87210
H          1.16777        0.42192        0.42430
H          0.28036        1.56060       -0.56600
H         -2.48548        0.10436       -0.72518
H         -1.57235        0.89563       -2.00387
H         -2.07751       -0.76497       -2.20342
H          0.28659       -4.21295        1.19051
H          1.66465       -3.52595        1.99879
H         -1.63157       -4.46992        2.58837
H         -2.97665       -3.81538        4.55297
H         -4.30279       -1.50098        5.02204
H         -5.78893       -0.78708        6.86597
H         -4.89271       -0.60456        9.18422
H         -2.51651       -1.15929        9.63301
H         -0.25756       -0.56571        5.34394
H          1.09562       -1.21778        3.37866
