30
NA-024_p0.smi:1
O         -0.97018       -0.25801       -0.28239
N         -0.11352       -0.62104        0.49471
N          1.13409       -0.12337        0.15643
C          2.08200       -1.19313       -0.13573
C          3.43897       -0.60050       -0.56362
N          3.99803        0.24374        0.50309
C          5.29866        0.78881        0.08839
C          5.92115        1.72401        1.13945
C          7.42250        1.65121        0.87997
C          7.66810        0.18683        0.52695
C          6.36291       -0.31541       -0.10737
C          3.03356        1.32188        0.76690
C          1.67204        0.74258        1.20002
H          2.20559       -1.83659        0.73729
H          1.68537       -1.81760       -0.93783
H          4.11299       -1.42439       -0.79986
H          3.32044       -0.02403       -1.48361
H          5.19225        1.34466       -0.84633
H          5.54856        2.74697        1.06873
H          5.71488        1.36208        2.14854
H          7.67976        2.28542        0.03003
H          8.01455        1.98367        1.73367
H          8.52693        0.06195       -0.13395
H          7.87281       -0.37988        1.43669
H          6.07812       -1.25451        0.37030
H          6.50056       -0.52539       -1.16918
H          3.39221        1.97285        1.56471
H          2.91021        1.94961       -0.11820
H          0.97103        1.55686        1.39024
H          1.77512        0.18698        2.13392
