17
NA-019_p0.smi:1
C         -1.19461       -0.24591       -1.23604
C         -0.12790       -0.69931       -0.22579
C         -0.63707       -0.59440        1.22573
N          1.11343        0.04844       -0.44786
C          2.27061       -0.56826        0.18647
N          1.02199        1.40713       -0.16405
O          1.32419        2.09113       -1.11844
H         -2.09257       -0.85919       -1.15444
H         -1.49265        0.79132       -1.07855
H         -0.83204       -0.33683       -2.26073
H          0.08073       -1.74992       -0.43586
H         -1.54773       -1.18000        1.35544
H          0.08846       -0.97833        1.94264
H         -0.87267        0.43311        1.50476
H          2.36283       -1.61558       -0.10299
H          3.18487       -0.05922       -0.12088
H          2.20859       -0.51629        1.27370
