89
NA-040_m0.smi:1
C          9.90546       -2.99045      -10.46701
C          8.58158       -3.53882      -11.01563
C          7.60282       -2.43484      -11.45667
C          6.89202       -1.70780      -10.29916
C          5.76682       -2.54379       -9.66652
C          5.00328       -1.81543       -8.54541
O          5.83738       -1.51035       -7.43081
C          6.18163       -2.46809       -6.55584
O          5.82061       -3.64603       -6.62867
N          6.99956       -1.89208       -5.56312
C          7.95334       -2.57965       -5.00764
N          8.59623       -2.13110       -3.87669
C          8.50425       -3.87501       -5.53178
C          8.55061       -5.01997       -4.70828
C          9.02772       -6.24325       -5.22066
C          9.48208       -6.33011       -6.55499
N          9.88877       -7.56081       -7.10391
N         11.13920       -7.89035       -7.49198
O         12.01102       -7.07963       -7.25651
C          8.76986       -8.45778       -7.41083
O          8.26065       -9.13421       -6.28226
C          7.62242       -7.80129       -8.13970
N          6.46027       -7.57159       -7.51728
C          5.73449       -6.91633       -8.49239
C          4.43393       -6.37777       -8.44441
C          3.86674       -5.75122       -9.58063
C          2.49325       -5.13496       -9.51487
O          2.37408       -3.95596       -9.86438
N          1.44371       -5.90111       -9.10777
C          0.13915       -5.27466       -8.81320
C         -0.94250       -5.57613       -9.87810
C         -0.62827       -5.00141      -11.25826
O         -0.40988       -5.73314      -12.22558
O         -0.60597       -3.66124      -11.26806
C         -0.27283       -2.97574      -12.46403
C         -0.20283       -1.47426      -12.17630
C          1.52653       -7.31359       -8.93042
C          1.82250       -8.11930      -10.05226
C          1.88074       -9.51540       -9.91188
C          1.62347      -10.07122       -8.64986
C          1.31390       -9.20983       -7.58769
N          1.25822       -7.86882       -7.72394
C          4.62429       -5.64609      -10.77074
C          5.92951       -6.17449      -10.83908
C          6.47571       -6.79958       -9.70400
N          7.70103       -7.39550       -9.43014
C          8.82557       -7.53559      -10.34230
C          9.48639       -5.17114       -7.35917
C          8.99645       -3.95414       -6.85274
H         10.58080       -3.80275      -10.19757
H         10.41476       -2.37557      -11.20971
H          9.75393       -2.37846       -9.57873
H          8.80476       -4.17130      -11.87599
H          8.11725       -4.19567      -10.28000
H          8.14101       -1.70630      -12.06493
H          6.85045       -2.86579      -12.11923
H          7.61316       -1.40575       -9.53933
H          6.45857       -0.78311      -10.68261
H          5.04871       -2.80989      -10.44240
H          6.16088       -3.48798       -9.29204
H          4.58958       -0.88318       -8.93015
H          4.15252       -2.41543       -8.21853
H          8.38698       -1.26471       -3.39601
H          8.18852       -4.97090       -3.69106
H          9.02859       -7.11931       -4.58771
H          9.15386       -9.23580       -8.07312
H          3.87901       -6.44343       -7.51917
H         -0.21136       -5.64408       -7.84935
H          0.22528       -4.19599       -8.67175
H         -1.09078       -6.65220       -9.97108
H         -1.89782       -5.16327       -9.55366
H          0.68888       -3.32765      -12.84081
H         -1.02182       -3.18042      -13.23034
H          0.05331       -0.91976      -13.07911
H         -1.15942       -1.09773      -11.81354
H          0.55479       -1.25449      -11.42365
H          2.00799       -7.67371      -11.02003
H          2.11399      -10.14646      -10.75733
H          1.65610      -11.14120       -8.49736
H          1.10291       -9.60398       -6.60453
H          4.20114       -5.14712      -11.63473
H          6.50756       -6.08688      -11.74799
H          8.55993       -7.17700      -11.33676
H          9.67558       -6.95543       -9.98364
H          9.11574       -8.58368      -10.42121
H          9.83935       -5.21666       -8.37852
H          8.98311       -3.07871       -7.48549
H          9.36882       -2.61334       -3.43308
H          7.34616       -8.84608       -6.27804
