31
NA-024_m1.smi:1
O         13.27189       -5.76166        6.89928
N         13.67790       -6.90404        6.89508
N         14.25424       -7.24654        5.67831
C         13.42330       -8.19388        4.92579
C         13.53454       -9.62335        5.49794
N         14.92512      -10.09733        5.57437
C         14.99991      -11.47126        6.09054
C         14.27238      -12.51671        5.21511
C         15.14896      -13.77568        5.16114
C         16.26177      -13.54691        6.17820
C         16.42728      -12.03133        6.20810
C         15.67761       -9.15302        6.41403
C         15.63077       -7.72039        5.84357
O         16.19554       -7.76900        4.54869
H         12.38508       -7.85869        4.92757
H         13.73704       -8.19523        3.88135
H         13.07089       -9.65802        6.48610
H         12.93836      -10.28366        4.86719
H         14.55408      -11.50907        7.08743
H         13.28923      -12.74216        5.63107
H         14.11279      -12.15428        4.19828
H         14.58400      -14.68570        5.36766
H         15.57893      -13.87863        4.16354
H         15.94564      -13.90211        7.16039
H         17.18446      -14.06707        5.91751
H         17.03068      -11.71776        5.35432
H         16.93668      -11.70054        7.11426
H         15.28591       -9.15662        7.43354
H         16.72234       -9.45598        6.49566
H         16.19760       -7.02402        6.46502
H         16.10900       -8.68713        4.29740
