43
NA-033_p0.smi:1
O          0.47255        3.93702        1.55385
N         -0.21859        3.18141        0.90526
N         -1.57212        3.43504        1.08504
C         -2.24379        3.84637       -0.14995
C         -2.31910        2.68067       -1.16176
N         -2.97298        1.51778       -0.55761
C         -4.35889        1.35610       -0.79545
C         -5.29108        1.27069        0.26630
C         -6.68029        1.10579        0.02939
C         -7.14442        1.03336       -1.30849
C         -6.21861        1.10957       -2.37183
C         -4.84519        1.26359       -2.12215
F         -3.99252        1.30252       -3.17582
C         -8.60360        0.88502       -1.60930
O         -8.98864        0.78467       -2.78212
C         -9.54028        0.87750       -0.44284
C        -11.00525        0.80167       -0.57986
O        -11.63320        0.74998       -1.63881
O        -11.67829        0.79026        0.60881
C         -8.98863        0.94594        0.79546
N         -7.62778        1.01296        1.07314
C         -7.13170        1.05625        2.44854
C         -7.75343        0.17818        3.51591
C         -6.36595       -0.12300        3.01125
C         -2.38399        1.11310        0.72100
C         -2.28605        2.31165        1.69565
H         -3.24829        4.19912        0.08850
H         -1.71506        4.69434       -0.58803
H         -2.84110        3.02496       -2.05472
H         -1.31821        2.39645       -1.49062
H         -4.93344        1.34612        1.27829
H         -6.55300        1.04733       -3.39701
H         -9.59325        0.95896        1.69112
H         -6.82060        2.05935        2.73820
H         -7.83988        0.59174        4.51898
H         -8.54021       -0.51845        3.23240
H         -6.24262       -1.00038        2.37881
H         -5.53347        0.09010        3.67928
H         -2.94720        0.29577        1.17426
H         -1.38838        0.70859        0.53132
H         -1.77876        2.01165        2.61390
H         -3.27941        2.64850        1.99236
H        -12.61424        0.74011        0.45650
