44
NA-033_m1.smi:1
O          0.18400        3.29826        6.09790
N         -0.98690        3.08903        6.33531
N         -1.15884        2.31625        7.47935
C         -1.37373        0.91125        7.12057
C         -1.44761        0.02909        8.38161
N         -2.52065        0.49474        9.25954
C         -3.76912       -0.17071        9.19875
C         -3.78968       -1.57380        9.37233
C         -4.99450       -2.32055        9.32681
C         -6.21674       -1.63447        9.11781
C         -6.20674       -0.23319        8.94676
C         -5.00516        0.49383        8.98393
F         -5.06800        1.83329        8.79345
C         -7.51832       -2.37406        9.08990
O         -8.57348       -1.76545        8.86624
C         -7.46879       -3.84604        9.35320
C         -8.66877       -4.69779        9.42424
O         -9.83478       -4.32070        9.29547
O         -8.40462       -6.01791        9.65564
C         -6.24393       -4.40259        9.53369
N         -5.03161       -3.72343        9.48602
C         -3.75724       -4.42206        9.65044
C         -3.53166       -5.76977        8.99511
C         -2.81277       -4.55225        8.47386
C         -2.41073        1.91369        9.59260
C         -2.26906        2.78661        8.31866
O         -1.94295        4.10467        8.71707
H         -2.28668        0.81131        6.53079
H         -0.55106        0.57024        6.49024
H         -1.58361       -1.01061        8.08180
H         -0.49954        0.06733        8.92112
H         -2.85298       -2.07252        9.56376
H         -7.12893        0.30502        8.78342
H         -6.11855       -5.45569        9.74165
H         -3.33024       -4.26408       10.64017
H         -2.94010       -6.50153        9.54215
H         -4.31426       -6.18556        8.36317
H         -3.13514       -4.15300        7.51382
H         -1.74561       -4.47736        8.67450
H         -3.24827        2.24314       10.20878
H         -1.52440        2.03723       10.21755
H         -3.18919        2.79332        7.73169
H         -9.21350       -6.51408        9.69040
H         -2.76339        4.57701        8.82843
