18
NA-013_p0.smi:1
C          1.75543       -1.00753        0.00880
N          1.15817        0.26581        0.42927
N         -0.08040        0.34605        0.97315
O         -0.68019       -0.69598        1.13578
C          1.98925        1.38541        0.21658
C          3.40449        1.29888        0.23991
C          4.19878        2.44329        0.02914
C          3.59302        3.69030       -0.20442
F          4.35727        4.78920       -0.40683
C          2.19115        3.79299       -0.22409
C          1.39648        2.64927       -0.01257
H          0.99700       -1.74533       -0.25440
H          2.38323       -0.88914       -0.87570
H          2.36314       -1.42923        0.81017
H          3.90649        0.36229        0.43249
H          5.27580        2.36510        0.05052
H          1.72450        4.75066       -0.40198
H          0.32148        2.75511       -0.03692
