46
NA-035_m1.smi:1
O         -4.73423      -11.26594        0.78165
N         -4.90407      -10.30375        0.06382
N         -3.73719       -9.93296       -0.59522
C         -3.13265       -8.72425       -0.02680
C         -3.94979       -7.45024       -0.34682
C         -3.28131       -6.20755        0.28786
O         -3.21559       -6.31266        1.70945
C         -4.34192       -6.05809        2.46452
C         -4.22823       -6.28494        3.86021
C         -5.31511       -6.05971        4.73505
C         -6.51691       -5.60032        4.17710
C         -6.64239       -5.37229        2.82355
C         -5.57657       -5.58800        1.93500
O         -7.89842       -4.93476        2.55134
C         -8.57132       -4.89314        3.78663
O         -7.68858       -5.31381        4.79866
C         -4.11295       -7.31004       -1.87972
C         -4.93648       -6.09020       -2.28524
C         -6.28108       -5.95690       -1.87118
C         -7.02954       -4.82214       -2.24039
C         -6.44193       -3.81516       -3.02832
F         -7.16217       -2.72486       -3.38353
C         -5.10445       -3.94327       -3.44667
C         -4.35355       -5.07660       -3.07700
C         -4.69743       -8.60703       -2.47493
C         -3.91341       -9.86471       -2.04678
O         -2.61339       -9.88579       -2.61097
H         -3.03377       -8.85201        1.05191
H         -2.11827       -8.61740       -0.41287
H         -4.94088       -7.56480        0.09126
H         -2.25769       -6.12890       -0.07974
H         -3.75712       -5.27336       -0.00988
H         -3.29135       -6.63970        4.26640
H         -5.22309       -6.23573        5.79718
H         -5.72828       -5.39205        0.88512
H         -8.90945       -3.87567        3.98983
H         -9.44066       -5.55210        3.75667
H         -3.11393       -7.18555       -2.30132
H         -6.74719       -6.72085       -1.26501
H         -8.05638       -4.72264       -1.91966
H         -4.65477       -3.16947       -4.05180
H         -3.32658       -5.15920       -3.40494
H         -5.73451       -8.72220       -2.15787
H         -4.72672       -8.53888       -3.56309
H         -4.43687      -10.76239       -2.38329
H         -2.61867      -10.52408       -3.31934
