24
NA-020_m1.smi:1
C          0.78555        1.20923       -0.68324
N          0.04334       -0.04091       -0.84285
N         -1.30107        0.24805       -1.02881
O         -1.62255        0.19272       -2.19697
C          0.28284       -0.99637        0.25339
O          1.68823       -1.17572        0.29863
C         -0.36196       -2.42157        0.08535
C         -1.88955       -2.39383        0.31745
C         -0.06851       -3.02317       -1.30641
C          0.20845       -3.38160        1.15890
H          0.52745        1.69822        0.25692
H          1.86402        1.05180       -0.70120
H          0.55289        1.89653       -1.49747
H         -0.03939       -0.55214        1.19783
H         -2.14378       -1.86311        1.23575
H         -2.43268       -1.92434       -0.50063
H         -2.29901       -3.40106        0.40238
H          1.00160       -3.09228       -1.50328
H         -0.48073       -4.02854       -1.39870
H         -0.50621       -2.42415       -2.10525
H          0.08295       -2.97175        2.16217
H         -0.29681       -4.34812        1.14074
H          1.26887       -3.59401        1.02169
H          1.83756       -2.11458        0.28175
