15512

O 19.63147100 -7.69072400 9.33183900
O 19.68017500 -7.04235800 11.92878600
O 13.97110500 -8.91338800 13.06154200
O 14.38176000 -9.75791600 15.57007500
O 20.30464000 -5.32230800 7.35761800
O 18.03077700 -6.24256200 6.29643500
O 20.58634600 -2.98997600 9.26534300
O 19.47558600 -5.20338100 10.09782200
O 17.39287200 -6.87619700 10.54545700
O 14.87625700 -7.67232700 10.59904800
O 16.06775800 -4.96502500 14.65983000
O 14.66626300 -7.17411500 14.95344700
O 12.25139600 -8.23815400 15.00053000
O 10.47802600 -10.23153200 15.25255700
O 20.91856400 -5.25944600 2.33508400
O 19.85569400 -5.05544400 4.76599700
O 18.42905900 -3.59673200 6.52922200
O 17.96576700 -3.29611300 9.10549300
O 15.12779500 -6.64536500 6.13027600
O 19.07943500 -2.95834600 11.50634200
O 15.66596100 -6.07310700 8.64717600
O 18.06478700 -1.92499100 13.74391000
O 15.47001700 -5.13472700 11.15717100
O 13.87827800 -5.28399600 13.25634700
O 11.54670700 -9.03298400 11.40781000
O 13.75778400 -4.84018300 15.90041600
O 10.07020900 -8.28382800 13.48323200
O 12.77370500 -3.25450600 17.81674300
O 9.90808300 -7.76653400 16.09061400
O 8.90799900 -6.11477900 17.91995800
O 6.74234800 -9.36370500 13.24151600
O 7.51842300 -9.66888000 15.79059200
O 21.58019900 -3.74319800 -0.17070800
O 19.97371600 -5.07394800 -1.84552300
O 21.65066200 -1.36809300 1.58920500
O 20.28702500 -2.87542900 3.33639200
O 18.35916800 -4.58839500 2.61236600
O 19.90472300 -0.21357300 8.44143000
O 17.15533700 -6.78083800 3.51084400
O 17.62592900 -1.23428400 7.51120200
O 15.95186400 -3.26318500 7.44552100
O 19.95358900 1.77595000 10.57281800
O 13.83682800 -4.64363300 7.30779700
O 18.83271300 -0.35076800 11.69559900
O 13.29487900 -7.16548500 8.07509300
O 16.68612500 -1.91076500 11.46796100
O 14.36369500 -2.92237700 12.15437400
O 12.88956800 -4.76343800 10.85158200
O 16.05819900 -0.19765300 15.88559100
O 11.08254500 -6.45245100 11.84673500
O 14.36571300 -2.26592500 15.91676600
O 9.08705400 -8.06801500 11.04082900
O 11.88145600 -3.09774700 15.30978000
O 6.56328300 -8.35782200 10.25721000
O 10.37172100 -5.14024000 15.90572800
O 8.00759800 -6.09918200 15.38777200
O 5.91467800 -7.63661900 15.08659900
O 4.93838500 -10.06224400 15.08173000
O 2.58892500 -11.23933800 15.42337600
O 21.62668400 -2.80485000 -5.34145400
O 21.25386900 -2.89979000 -2.69882500
O 19.24343200 -2.69599200 -0.95092000
O 19.01553400 -1.58182500 1.42018000
O 17.19830700 -5.02565200 -1.08419400
O 20.14014700 -0.20921700 3.41921400
O 16.21991200 -5.50700300 1.35426900
O 19.26255500 -0.03384800 5.88037500
O 15.99142900 -4.41530700 3.79578800
O 17.87323900 1.37342700 7.73966500
O 14.40637700 -2.97173800 5.30629700
O 17.35160900 1.42881600 10.32504900
O 13.63593900 -1.96801700 7.64078500
O 18.39727000 2.06066300 12.71463600
O 14.57617800 -1.39502900 10.02478200
O 17.36204600 3.35010800 14.79218500
O 14.86229300 -0.27915200 12.45448800
O 10.97687200 -5.74522300 9.27966700
O 13.65599600 -0.00763400 14.78774300
O 10.44099000 -3.94704900 11.18199100
O 13.88771700 -0.18632000 17.44602400
O 8.05258400 -6.31494800 9.32605100
O 9.81696900 -3.70863200 13.72654700
O 14.48182700 1.26860400 19.55849600
O 7.26512400 -6.36818000 11.90002000
O 9.40195300 -2.68084000 16.14688800
O 6.00937600 -5.25044700 13.94681900
O 9.48482800 -3.36605700 18.70864300
O 4.12748200 -9.52037000 11.82195100
O 5.74300700 -5.50669400 16.62226100
O 2.78560100 -8.95103000 14.03893600
O 6.64238000 -4.49114200 18.89457000
O 3.14772600 -8.92723600 16.68907500
O 1.54616200 -9.10191700 18.82306500
O -0.22935900 -12.14320500 14.86359100
O 0.36709100 -11.35852800 17.33764200
O 22.63676600 1.82881000 -4.13340000
O 21.47827900 -0.57388400 -3.92288300
O 19.28233300 -2.08686700 -4.30775500
O 21.08639200 1.48859100 0.81799200
O 17.97294200 -4.36776100 -3.87147900
O 19.53469200 -0.05471600 -0.65220200
O 17.14900300 -1.16396400 -0.43841400
O 21.05054100 3.66473900 2.80879400
O 15.62018300 -3.24288000 0.10037700
O 19.66068900 2.14208600 4.48962200
O 14.59308100 -5.55782500 -0.76336400
O 17.63330000 0.53586500 3.81835900
O 19.30849700 4.57162200 9.66833000
O 16.23738900 -1.75722500 3.79460000
O 16.98054600 3.60872300 8.81544800
O 14.08935500 -2.93061800 2.67408200
O 15.35779100 1.48178600 8.59031500
O 19.82999500 6.68735800 11.62204300
O 13.03283900 0.34236400 8.79759700
O 18.64063500 4.70178400 12.89122600
O 11.95337800 -1.92519500 9.69655100
O 16.29233500 3.56553000 12.38427000
O 14.33465700 2.13718400 13.44432400
O 12.35974400 0.57406200 12.53654400
O 14.74176300 4.41141500 18.36672600
O 10.97902200 -1.67661700 12.50205500
O 13.45644200 2.38940000 17.34743800
O 8.51897600 -2.31539700 11.80877800
O 11.87417700 0.91180200 18.80956100
O 6.39403100 -3.89007300 11.69950200
O 10.31034600 -0.94171000 17.91384200
O 4.67096300 -5.90804300 11.75512200
O 7.73023600 -1.56367500 17.88214200
O 2.53043700 -7.39742000 11.88784500
O 5.65766800 -2.88803700 16.99342300
O 1.43949300 -9.80860100 11.91094900
O 3.99760100 -4.49061200 18.28529400
O -1.01233200 -10.65915900 12.46951100
O 2.66851600 -6.75225100 18.17248900
O 0.78901200 -7.72533700 16.66855900
O -0.63103700 -9.64906600 15.54785000
O -2.21915400 -11.54110100 16.56741100
O -4.83350200 -11.97641400 16.90053300
O 20.84466900 -1.29273900 -7.80578700
O 21.36086300 0.76799800 -6.21611400
O 18.78949200 -3.31723500 -8.95462100
O 19.98955300 1.58870300 -4.08947600
O 18.21252100 -3.39484000 -6.36191600
O 20.17926200 2.33073600 -1.55167100
O 16.64095500 -2.18225500 -4.63013000
O 18.47526000 2.13695800 0.47857900
O 15.46617500 -2.04708200 -2.27383500
O 18.39183200 3.56123400 2.67467300
O 14.59516300 -0.79839300 -0.06086100
O 19.56455300 4.78601300 4.72776100
O 15.66774500 0.22754700 2.11928800
O 18.59455500 4.94560800 7.15993900
O 15.16770900 0.47266400 4.73500500
O 17.29837000 6.23441600 9.11456200
O 13.62740300 1.54688800 6.55917000
O 17.17277500 6.57729400 11.72846300
O 13.13531300 2.99864100 8.71189800
O 18.55249400 7.15003800 13.93843300
O 14.04110100 3.25225200 11.10019600
O 17.22930100 6.94668800 16.22819400
O 14.15932700 4.81954400 13.24846600
O 9.89303100 0.56024700 11.56019300
O 13.93402800 4.44584200 15.82950800
O 10.32688900 0.32928700 14.19283900
O 12.20039700 4.73999000 17.84531600
O 6.16050500 -1.34926900 11.02702400
O 10.53182600 1.37549500 16.59678500
O 12.88897700 6.57484300 19.62355400
O 6.63046500 -2.00548700 13.58554000
O 9.21272900 1.30836500 18.89504200
O 2.33498700 -4.83133900 11.07669100
O 6.34535900 -0.61484500 15.85781600
O 9.27688400 2.92456500 20.99101200
O 2.87423300 -5.44646300 13.63207000
O 5.36962500 -0.60522600 18.37212500
O -0.38397100 -9.93998100 9.96631100
O 2.54957200 -5.07625300 16.14813900
O 3.46850500 -0.68478900 20.19595600
O -0.56980000 -8.06907900 11.85315300
O 1.32750900 -4.44535100 18.41166900
O -0.35168600 -7.30621800 14.38521800
O 1.05227300 -2.57310800 20.23855400
O -3.66467500 -11.77700300 13.07521100
O -1.82126000 -7.50185000 16.63789800
O -3.95211400 -10.14202300 15.16433200
O -1.27383200 -6.36067300 18.98304300
O -3.69867500 -9.69363000 17.78841900
O 20.93704300 1.22068900 -8.78866400
O 18.90386900 0.44999800 -7.22902800
O 22.08373400 4.81623100 -3.60764800
O 17.22942800 -1.46590500 -7.90876900
O 19.55245800 4.10523100 -3.44957400
O 16.25646300 -3.85871600 -8.15061200
O 17.83720000 2.22790400 -2.71502500
O 20.47406300 6.30642800 1.70099500
O 13.87268700 -4.95964800 -8.56886900
O 16.42555200 0.13581700 -3.38683700
O 18.70469400 4.76092700 0.36629800
O 14.26239800 -1.10923300 -4.47815400
O 16.31977800 3.69692100 1.04412000
O 19.70297500 8.75335800 3.75210900
O 14.58645700 1.82346800 0.32185400
O 18.58436500 7.09378000 5.53221500
O 12.98973100 0.20448100 1.77179000
O 16.98842100 5.04473300 5.01491300
O 16.93214700 11.15480700 9.70650600
O 15.27883900 3.07887100 5.17183900
O 16.52472100 8.56418900 10.10621900
O 13.08183200 1.94870000 4.02445100
O 14.94592500 6.38884500 10.33103200
O 12.59052500 5.20863300 10.13172300
O 18.20882000 9.29202000 15.49781100
O 11.39588900 2.89877800 10.73553400
O 16.13310400 8.20891200 14.16573800
O 13.97966400 6.88739900 14.91931400
O 11.85705300 5.38167000 14.41672000
O 10.78146900 2.93548400 14.49325900
O 11.97703000 7.32240800 17.23991900
O 8.38884400 1.93196900 15.05916700
O 10.28467200 6.15305000 19.00350700
O 6.69120100 0.60371100 13.55730500
O 8.89974500 3.94967600 18.56452300
O 4.39581200 -0.72525700 14.05130800
O 6.97153400 2.50802000 19.69921300
O 3.08663100 -2.98002000 14.55620500
O 4.49356500 1.65686100 19.38382800
O 0.69138400 -4.17334300 14.43184300
O 2.92022900 0.25023000 17.74890800
O -0.52493000 -5.48615300 12.50718600
O 1.36976500 -1.86248700 17.69646800
O -2.63600500 -6.98083100 13.11208900
O -0.89486900 -3.02941800 18.43824200
O -3.96894800 -9.20466800 12.67607700
O -2.05714800 -4.86371100 16.94379400
O -6.02886700 -10.64718900 13.60326300
O -3.79826400 -6.53292800 18.10855900
O -6.98943800 -12.70265500 14.96644800
O -6.05201800 -7.97607700 18.06190600
O 17.60691900 1.23998000 -12.10533000
O 19.86518700 3.96546200 -8.07787300
O 17.60324800 0.55886800 -9.53786200
O 20.49580400 5.05225300 -5.73267700
O 15.76373700 -1.54166200 -10.79119400
O 16.23402200 0.83557200 -7.25411400
O 20.11966700 6.65585500 -3.58533100
O 14.16375600 -2.32173100 -8.80501700
O 16.69906400 2.18853100 -5.07208500
O 20.04084700 6.63286200 -0.93826700
O 14.29774600 -3.44418000 -6.38347800
O 15.25264600 2.49943700 -2.86080700
O 18.21342800 7.33960100 0.77698000
O 14.55009000 4.14083200 -0.91272800
O 17.35916600 7.67804500 3.25487900
O 13.73410600 3.99699400 1.61294400
O 17.53807200 9.51937900 5.17067000
O 14.75080700 5.20706000 3.69139500
O 16.54092000 9.54893400 7.63295600
O 14.71587800 5.45102800 6.33566000
O 14.49719200 10.11756200 9.30927000
O 13.41530800 6.79414000 8.21184600
O 12.73621000 7.83384500 10.56837400
O 13.87848800 8.52729800 12.84573100
O 14.13101500 9.46303400 15.39729700
O 10.05977400 4.65483800 12.58816100
O 9.33609300 5.07619200 15.11307200
O 7.54472300 3.02999000 12.74532200
O 8.31254500 6.20142100 17.24199600
O 5.85223500 2.72514100 14.77161400
O 7.73950600 5.97818100 19.84471500
O 3.44233000 -2.15639900 12.02084500
O 5.74449400 2.85920700 17.39054000
O 1.79327300 -0.83321300 13.65912900
O 4.99305300 4.29050400 19.49757300
O 0.25423800 -2.98127000 12.10016400
O 0.94543100 0.11071100 15.97110700
O 3.73167200 6.31881500 20.63277800
O -2.51085500 -8.13749000 8.92192100
O -1.81379400 -3.51294000 13.74530700
O 0.38369100 0.48266300 18.51887400
O -4.03497100 -7.24061800 10.89779000
O -1.90624600 -2.33937800 16.08032900
O 0.89327400 0.15932300 21.11022300
O -5.50974800 -14.07549400 10.47389300
O -5.26153200 -6.93411200 13.22926200
O -3.49239700 -3.00469300 18.15331600
O -6.87100300 -12.76343900 12.29635100
O -5.14064400 -6.84355600 15.87226300
O -3.39337300 -3.92815000 20.62660300
O -8.64954700 -11.15000900 13.52586900
O -6.16029500 -5.27633400 17.80096200
O 17.98931000 3.13284800 -10.22784900
O 19.78715800 6.64017100 -7.74632800
O 15.60942500 1.99632000 -10.50151200
O 17.96251200 5.08453900 -6.57795300
O 19.86414500 11.44823300 -1.76849300
O 13.89182200 0.10032700 -9.85904900
O 16.04809600 3.45031100 -7.33743600
O 19.54460800 8.88495400 -2.21966200
O 13.24271100 -2.03018500 -11.32795900
O 14.24456800 2.03657400 -5.94076700
O 17.81056600 6.85199200 -2.25696200
O 19.26160200 10.75668800 1.33700600
O 9.26402500 -5.05763400 -13.48940200
O 12.52913600 0.32365800 -7.08379800
O 15.99612700 5.06171200 -2.90589500
O 16.92774500 9.52806300 1.40566100
O 13.43353100 4.37986300 -3.32989000
O 15.61016500 7.26155000 1.28170700
O 13.20596200 6.58986200 2.07054400
O 15.93749700 11.49834200 5.85755300
O 12.12598400 4.70380800 3.63617300
O 14.95005200 9.03868100 5.57945700
O 12.96988200 7.36053700 5.70250300
O 12.12280900 4.99718800 6.65089100
O 12.34396500 10.23405700 11.55011300
O 11.21471400 8.08821500 12.76583700
O 9.71526800 7.68537500 15.50210500
O 7.28297400 6.75905100 14.87444800
O 5.56425400 5.06644700 15.89755400
O 3.56066800 3.35025100 15.87760800
O 2.31073300 1.67855700 14.30952300
O 3.51526600 5.94975300 17.98314800
O -0.17816800 0.95395300 13.75279400
O 2.36123600 4.21740100 19.69264400
O -4.73669100 -6.76269400 8.40503600
O -1.96204800 -0.89709900 13.81289100
O 0.35408500 2.58315000 20.16118700
O -4.90049300 -9.26415900 9.38696300
O -4.05925600 -2.28077200 14.56212900
O -1.57197100 0.76667600 20.27888100
O -6.04030600 -11.52496800 10.05736600
O -5.19947200 -4.62256800 14.51980700
O -3.17853500 -1.29815600 20.11130100
O -8.02115800 -13.32976900 9.96625100
O -7.37337600 -6.24949200 14.62773900
O -5.53128500 -2.53287100 19.78903800
O -12.68706700 -15.48815400 8.39905700
O -8.09797100 -8.55609800 15.71717700
O -8.15883700 -2.55677400 19.44763700
O 10.09267700 -0.04767900 -18.89007800
O 15.63291600 4.82531500 -11.00033400
O 18.67080800 8.47928600 -5.71655400
O 13.64987300 1.37113000 -12.17358700
O 16.48615700 5.70763400 -8.68435700
O 19.03271200 10.61196000 -4.17388000
O 7.40951500 -3.94680900 -18.28769100
O 13.19993400 2.73528000 -9.96446500
O 15.41301900 5.78071800 -6.27148400
O 17.40752600 10.50269500 -2.03934400
O 7.95685100 -4.26888300 -15.67919200
O 12.35439700 3.01684500 -7.50346400
O 16.21572800 7.29622200 -4.31191600
O 17.09914800 11.85052500 0.20007100
O 8.49633300 -2.51055800 -13.73333000
O 11.59186800 2.03146400 -5.02233600
O 15.25005600 7.37222000 -1.83323100
O 17.24275600 11.70188000 2.89408600
O 13.49811400 8.14794000 -0.04890500
O 14.11149600 9.14080200 2.28606800
O 12.70240100 9.68674800 4.34674000
O 12.76959100 9.68616600 7.00908900
O 5.66020700 5.40673800 13.25760600
O 4.65825400 7.34474900 14.87117900
O 2.97076100 4.07673300 13.36550100
O 1.02337700 3.82667200 15.18973200
O -2.65694900 1.54688700 12.96847100
O 0.61547200 3.69197600 17.77683200
O -10.37089500 -10.29143000 3.92145000
O -3.94358400 -4.23837300 10.85141400
O -2.08249800 1.08108200 15.57819100
O -0.13778000 5.19141400 19.86154100
O -7.26697400 -9.86742100 8.36040200
O -5.56006800 -2.93026100 12.49475800
O -2.82738800 0.30245200 17.99749400
O -12.71122100 -14.63284700 3.33858700
O -7.03999900 -9.26845500 10.96697600
O -6.65933100 -2.43776900 14.85276200
O -4.19090800 1.15916900 20.13654700
O -13.12422200 -14.53043000 5.97049900
O -8.13566300 -8.22333200 13.08870600
O -6.50252200 -1.93819400 17.44449100
O -5.59043700 2.71764200 21.76415600
O -14.96715500 -14.13025200 7.88376800
O -9.97170600 -6.95835900 14.60782700
O -6.86377000 -0.19814300 19.44617900
O 9.38313600 2.10511200 -17.48941400
O 16.09659800 7.42423400 -10.68847300
O 19.42230000 10.79652000 -6.80889400
O 8.60451700 -0.28891000 -16.70164800
O 13.98471900 6.27747000 -9.47508700
O 16.93966000 10.50747700 -5.83149500
O 6.69216100 -2.08614400 -16.52715400
O 11.77309500 4.84496900 -9.32542600
O 15.53555800 8.41775500 -6.60465900
O 16.59538100 13.02735300 -2.15853200
O 10.61847800 2.43000700 -9.37652100
O 13.65605800 7.31893000 -5.04293800
O 14.95010800 11.15501700 -1.18715000
O 6.06710600 -0.88368700 -13.38954300
O 12.10177900 5.40315200 -5.91625100
O 13.52732600 9.30108700 -2.39203700
O 12.61877800 6.76735800 -2.08938700
O 14.28644000 11.57641400 3.31388900
O 12.05567100 10.80904500 1.95233400
O 0.84692800 6.06361000 16.61206600
O -1.34367400 4.53483400 16.18763400
O -11.40158200 -7.89327800 3.22858000
O -5.66433500 -2.41711100 9.92571500
O -3.02936800 2.82101800 17.29547300
O -13.00007900 -9.81163000 4.15506600
O -6.54904700 -4.81143600 10.89308600
O -4.67454400 0.95430500 16.24113500
O -13.45289100 -12.38505800 4.46991500
O -8.14214400 -6.90776600 10.71661700
O -7.06343900 0.02285800 15.74180500
O -3.20699600 3.54851500 20.80981400
O -9.67513300 -9.07568700 11.13943900
O -8.82305200 -1.98185500 16.21441100
O -5.34231900 3.37327000 19.20338600
O -14.89341100 -9.17754700 10.99346100
O -9.03206100 -4.40840900 17.23581500
O -7.56562600 4.56120600 19.94691000
O 10.57647800 4.63059100 -16.85077100
O 14.37061700 9.71920400 -10.26398200
O 12.36327800 6.17734500 -11.57649600
O 15.39178600 10.68349900 -8.00373500
O 6.05971500 0.47209200 -16.38475000
O 11.60225800 7.47085800 -9.41517000
O 14.30915100 10.46415200 -5.56477700
O 6.57836900 1.64633200 -14.11557900
O 11.87546200 7.91575000 -6.86445700
O 13.60694800 11.75753500 -3.39790500
O 6.14208300 1.07291400 -11.55041700
O 11.04337900 7.36823800 -4.39699200
O 12.28840600 11.27286600 -1.09214800
O -3.98945300 4.92854300 15.99814200
O -10.92384800 -5.77330000 5.45220400
O -4.85030900 0.31362700 11.28511000
O -2.71228500 5.22658100 18.37186900
O -8.82744500 -4.63915400 9.56046200
O -5.57818200 0.91570700 13.73628200
O -14.62406900 -10.59299100 6.10568000
O -8.88418000 -4.90093300 12.22466600
O -6.60531100 2.63130100 15.51699500
O -15.08738000 -9.20642800 8.35796900
O -9.43231500 -3.99362800 14.63213400
O -6.84184900 4.49897400 17.34798700
O -16.70252400 -7.58850900 9.82019600
O -11.25028900 -3.08452800 16.40532400
O -5.47860900 6.03600000 19.07508300
O 9.80120600 6.98210800 -15.89913700
O 14.67748900 12.36117100 -9.94766700
O 7.96507600 5.21590500 -16.76253700
O 12.81128000 11.03052500 -8.55304100
O 6.45165400 3.09979300 -16.33802100
O 10.56874700 9.66262600 -8.33907700
O 13.35056600 12.93658100 -5.82336700
O 5.44883500 -4.41463700 -16.56277500
O 9.47997100 7.28385900 -7.79554200
O 11.77427000 10.88958200 -5.09508500
O 2.96797400 -5.29439800 -16.19839000
O 4.61919200 3.49067900 -10.74070000
O 9.40469900 9.74082200 -5.01958500
O -13.18052400 -12.38132500 1.28844900
O -15.52657800 -13.39353800 0.45146200
O -12.52465700 -4.11924800 4.16453200
O -6.65734800 2.28013000 11.68046800
O -13.51783700 -6.15827300 5.62788000
O -7.29794100 -0.28111100 12.05179200
O -15.28074700 -8.08419100 5.93360800
O -8.72086300 -2.34795900 12.65091200
O -8.62695900 4.34132800 15.35743200
O -15.18467000 -14.45576000 4.30516300
O -11.11452400 -3.52087300 12.65372100
O -8.57844600 2.50837100 17.31878800
O -17.62885200 -15.32250800 4.90448300
O -16.75477500 -4.94477500 11.75927700
O -9.74247100 0.55890400 18.66794500
O 7.73213000 0.33685700 -21.01715200
O 7.62655200 8.94822200 -16.39141400
O 6.87517200 -0.49615200 -18.68312700
O 11.04528600 11.03383600 -10.54162100
O 4.71268700 -4.34826600 -19.74330800
O 5.95295400 5.38702900 -15.05866300
O 10.54680500 12.32158000 -8.22923000
O 3.46202700 -3.15324900 -17.73620700
O 4.57385100 5.03459900 -12.85622400
O 9.66092800 12.31647700 -5.71627400
O 3.81097900 -2.99030100 -15.08724500
O 4.82143400 6.15417600 -10.44001700
O 10.07380500 11.57802400 -3.15566700
O 3.31352800 -1.70696900 -12.82993900
O -0.86689600 -5.24274500 -17.28348600
O 0.35039400 -5.91536300 -15.01172100
O -13.19416900 -11.50428100 -3.66802400
O -14.04288200 -11.90311800 -1.16692700
O -15.29535800 -10.76974800 0.91826000
O -12.09289300 -0.80960300 7.09796500
O -15.37789200 -10.78374600 3.56347700
O -9.79940000 -0.41055500 11.19624000
O -18.44165200 -13.44414900 0.77910500
O -15.68070300 -5.76251400 7.15052300
O -9.29604300 -0.03190600 13.78132800
O -17.25697100 -13.39973400 3.12757600
O -16.76703500 -4.59752200 9.17664000
O -10.18005800 0.83262400 16.04857000
O -16.79766400 -12.90400300 5.76139300
O -18.31538600 -3.03112500 10.66215800
O -11.23511200 2.60464500 17.71820400
O 6.97269000 2.13126600 -19.19114600
O 8.08681100 11.11406200 -14.86106000
O 5.11750700 0.56082000 -20.36290100
O 5.88261200 9.66253600 -14.49984000
O 4.05420500 -1.79812400 -19.95157000
O 4.57373900 7.40020900 -14.05461500
O 9.39910500 14.50799700 -7.22706900
O 2.12764200 -3.65493300 -19.97510300
O 4.24044400 1.98798700 -15.25730800
O 7.93777900 12.30683400 -7.74443300
O -0.37855400 -4.19354500 -20.68362800
O 3.13936800 -0.44188300 -15.15705800
O 2.08866400 9.09819300 -10.42806900
O 1.33454100 -2.36807800 -14.53615300
O -0.92931700 -3.59372600 -15.17561300
O -2.32732100 -5.90670200 -15.14693100
O -4.61350000 -7.02541000 -14.26607900
O -12.61486900 -10.30005400 -6.40773600
O -14.97478100 -10.38700400 -7.64004800
O -12.85247600 -7.00698600 -2.18083100
O -13.89424100 -9.44852800 -2.15127600
O -15.75506200 -11.13384900 -3.05397200
O -13.16925500 -7.42642700 0.78642400
O -17.44857400 -12.77404900 -1.83538800
O -15.06708200 -8.50966600 2.28013700
O -13.33268600 1.46749400 6.48392900
O -17.41024300 -9.72387800 2.16921800
O -14.72084500 -0.80174700 6.58892700
O -19.15571400 -11.66424800 2.63640200
O -15.82352500 -3.12390300 7.16615500
O -10.30767400 2.41706600 13.85304000
O -19.77631600 -14.27535800 2.97410900
O -17.08821800 -9.85551000 6.73800400
O -11.91903200 0.28703000 14.13777100
O -19.52757400 -10.12679000 7.74098900
O -18.33302900 -0.97660100 12.87266900
O 6.89939700 5.05799900 -19.85632900
O 2.68420300 0.07656100 -21.30842300
O 5.46506400 5.18381600 -17.66172200
O 3.06824200 0.32122800 -18.67534900
O 3.40822600 9.72174100 -13.71405800
O 1.05837500 -2.34516500 -22.02264900
O 2.02949100 1.49951900 -16.53658600
O 2.89597500 11.29110700 -11.71208800
O 0.22651900 -1.85298300 -19.53384000
O 2.03352300 1.63481100 -13.85954300
O 2.89754500 11.22398500 -9.04729400
O 0.16372100 -1.91734500 -16.89446900
O 2.05925100 3.71988600 -12.15879900
O -3.02247200 -6.32467300 -19.07290800
O -0.86969300 -0.96660500 -14.62841700
O -4.37687100 -6.28905600 -16.80690700
O -1.45433100 -1.26388800 -11.86418800
O -4.50619300 -4.44096500 -14.90917300
O -5.88221500 -4.14429500 -12.67553900
O -7.87192300 -7.68781200 -15.08493600
O -9.36497900 -8.00982600 -12.87910200
O -11.54523300 -9.22885400 -11.30031400
O -12.81599100 -9.50360200 -8.95904900
O -13.87410600 -8.02435100 -7.00997900
O -13.93020200 -8.05270000 -4.40132700
O -18.61036900 -11.06624800 -6.64256100
O -15.48568700 -7.32998800 -2.39711400
O -18.18503400 -11.37298400 -4.01860100
O -15.78842600 -7.12348600 0.17040300
O -17.83138500 -10.13209700 -1.70491900
O -14.76016600 -5.85122400 2.23949600
O -19.34400100 -10.28007800 0.42965900
O -15.92156800 -5.92651700 4.56052700
O -19.90347100 -9.13342800 2.79217300
O -16.76077600 -0.91936100 8.28391100
O -19.14899900 -9.12841800 5.29524400
O -17.81377800 -0.04819200 10.48399800
O -18.44522300 -7.67577800 7.46467500
O -19.43247600 1.33718400 12.07939400
O 5.28544800 7.17545300 -19.43342300
O 4.27560300 4.73583700 -20.00362200
O 2.93548400 2.94239000 -18.60621600
O 3.76090800 12.32503100 -14.04650900
O 0.71138600 1.52363700 -18.82544800
O 3.31127700 5.32943800 -15.19504000
O -1.26038300 -0.09589600 -18.21275200
O 1.11009700 3.96448200 -14.61105300
O -1.96897000 -2.65079300 -18.30409000
O -0.23846300 2.54319400 -12.82944300
O -4.16358200 -4.08002500 -18.24894500
O -2.26254400 0.95915500 -13.35676700
O -5.71054800 -6.05707600 -19.10827800
O -3.39290300 -1.34280900 -13.88334100
O -7.80907600 -7.23910700 -17.99236900
O -5.78665600 -2.16575700 -14.48155800
O -7.14477400 -4.35831700 -15.03091600
O -9.21102400 -5.63298700 -14.08550400
O -10.57489700 -7.58567000 -15.22840800
O -12.69610300 -8.71002800 -14.09337600
O -11.22485200 -6.03215400 -11.93948900
O -12.90382000 -7.19395800 -10.29220900
O -14.19080700 -9.30706200 -11.25507800
O -12.44102700 -3.44726100 -6.03945800
O -15.42543200 -11.45545400 -10.37268700
O -13.69738300 -5.74606000 -5.64371600
O -16.00948600 -7.04026300 -5.74750000
O -13.15655700 -3.95347600 -2.64787500
O -17.60215000 -9.08040200 -5.20454000
O -15.16474700 -5.00079500 -1.24555100
O -20.15754900 -9.75671200 -4.85542700
O -17.61690100 -6.00677800 -1.46784900
O -13.74626100 -1.69577100 2.55764600
O -19.22035200 -8.00643900 -0.93115700
O -15.41877600 -3.55606300 3.44467800
O -20.49817200 -10.13314300 -1.95118900
O -17.31497800 -5.20746200 2.48769200
O -18.83865600 -6.96171400 3.79447600
O -16.46073100 1.65140500 8.90641500
O -21.31388100 -7.72101200 4.58223300
O -18.07602500 -4.55083800 6.89891600
O -19.96860500 -5.34237800 8.53345200
O 5.50726200 10.25748100 -17.96783900
O 2.52489400 3.16500400 -21.23610800
O 4.00698900 8.96524400 -16.20378800
O 1.67145500 5.07263100 -19.53622300
O -1.70747300 2.03359500 -19.75174200
O 1.32065800 5.09378100 -16.93078300
O -1.15533400 2.31093700 -17.11297100
O 1.01499800 6.59103700 -14.71569500
O -3.21224600 -3.22514600 -20.58271100
O -1.96109400 3.19397100 -14.74773200
O 1.75579600 6.72790200 -12.16726500
O -4.30853600 -1.49432100 -18.82692600
O -2.68451500 3.27473500 -12.18438800
O -8.05872700 -6.10119600 -20.40168200
O -4.36810800 -0.83213200 -16.28927300
O -4.76445600 4.05438100 -10.74234800
O -7.75940500 -4.56973200 -18.24625300
O -5.34595800 0.43746700 -14.18259900
O -9.46515300 -4.14462100 -16.28346500
O -5.54899900 1.27573400 -11.66766700
O -12.43376500 -7.98591300 -19.33339600
O -9.07385200 -2.99179400 -13.88175600
O -9.90545000 -3.46160100 -11.39230700
O -12.78356200 -6.12162500 -14.77549100
O -13.85477500 -5.94130500 -12.42714400
O -15.43023100 -9.64725100 -14.76009700
O -12.81981100 -4.51761000 -10.44006400
O -16.51139400 -10.02960800 -12.36174200
O -13.73791700 -4.64022300 -8.01604400
O -16.41305200 -9.06786400 -9.85243500
O -15.12917500 -3.52452200 -6.04394000
O -17.42662700 -8.23005700 -7.65141200
O -15.66317500 -3.66631600 -3.48724800
O -18.66812000 -6.73379600 -5.82896100
O -14.90909200 -2.39250900 -1.30848200
O -19.38387000 -6.75109300 -3.29026500
O -15.86049400 -2.42435500 1.12624000
O -20.17614400 -5.55759700 -1.00029700
O -16.20255600 -0.98055400 3.32659200
O -19.70424300 -5.79584400 1.56616900
O -17.18179700 -1.38508600 5.71511100
O -19.45540000 -4.39475600 3.79995800
O -20.63070900 -4.37538700 6.13887000
O -19.64879100 -2.71366800 8.03325500
O 3.39571400 11.48565200 -16.86942900
O 3.06032900 9.49082000 -18.64474400
O 1.64328100 7.35653100 -18.21904700
O -0.61940500 5.96936700 -18.53266500
O 1.27432800 11.24941300 -13.82903000
O -2.21314500 4.70432600 -16.83645100
O 0.58583600 8.80133300 -13.34117800
O -3.76847400 2.55272900 -16.63149900
O -0.83564600 6.62768500 -12.78644500
O -5.17356300 0.90074600 -18.16090500
O -3.20852100 5.85656500 -11.96352200
O -6.63833000 -1.25060300 -17.58419000
O -4.81058300 4.28447400 -13.39384400
O -9.01701300 -2.21760000 -18.06771800
O -6.77567300 2.56570400 -13.70421900
O -10.31676000 -4.40286100 -18.80646500
O -7.65082300 0.18617800 -12.88622000
O -12.43461600 -5.70474400 -17.98829200
O -9.98187200 -1.00230600 -12.36797700
O -14.69055700 -7.04346000 -18.27991900
O -11.61274300 -2.94184000 -13.33549000
O -13.94626100 -3.82928600 -14.02308200
O -15.43025000 -5.95497600 -14.60953400
O -11.29619100 -0.84299000 -9.21918100
O -17.06407600 -7.81218400 -13.72071400
O -13.53897900 -2.29241400 -9.15853400
O -18.04619700 -10.16120000 -14.54593300
O -15.38678400 -4.06183000 -9.99829600
O -12.44950300 -1.30571000 -4.28940900
O -16.38231600 -6.43749900 -9.29593500
O -15.07049400 -1.32627700 -4.57392300
O -18.67418300 -7.67563200 -9.96436900
O -17.38690900 -2.41804900 -5.07605600
O -13.24865000 0.13129500 0.05166300
O -18.97513900 -4.43884700 -4.57333700
O -15.84880100 -0.16701600 -0.27595600
O -21.11807500 -5.96439800 -5.14700800
O -17.53490200 -2.17609500 -0.87727300
O -16.08585200 2.39547700 6.04331700
O -19.46464100 -3.44831300 0.43230800
O -17.65522300 0.91752500 4.48841100
O -21.90830900 -4.51394100 0.81790200
O -18.84022100 -1.30081000 3.65138900
O -21.12362000 -2.45146400 4.36229300
O -22.05154000 -4.92935500 3.90994300
O -18.83399700 0.71918500 8.11745500
O -21.28219400 -0.25998700 8.37738500
O 1.50876600 8.55520500 -20.58771100
O 0.39591700 9.68662500 -18.40537800
O -3.22933200 5.90176200 -19.00449000
O 0.15000500 9.84212100 -15.76099300
O -2.30076500 7.29228800 -16.90901300
O -1.33785200 10.62527300 -13.64041000
O -4.34849800 3.19997600 -19.15153200
O -2.92138100 6.94978600 -14.36627500
O -6.28276500 3.15794700 -17.31605900
O -2.70279700 8.42984600 -12.15995800
O -8.44342800 0.27248500 -18.82037000
O -6.62349000 4.75724500 -15.25196700
O -4.53743300 8.67874600 -10.24763900
O -8.75369000 -0.29720500 -16.23506700
O -7.26254200 4.95217900 -12.68982900
O -12.31347100 -4.87222000 -20.49948200
O -9.83286500 0.94112900 -14.13445900
O -6.52668800 6.46704500 -10.66072400
O -12.59669800 -3.08758600 -18.49159000
O -9.53342200 1.49231000 -11.55401300
O -11.38711500 2.11493000 -9.78284800
O -13.49085000 -1.18949600 -13.81418700
O -17.54095100 -6.54103000 -16.03225000
O -12.95740200 -0.79927600 -11.26993000
O -17.89528500 -5.29392800 -13.73595100
O -13.68441000 0.32570200 -8.96252800
O -17.56230700 -5.05733800 -11.14157300
O -13.61638900 -0.03759200 -6.35404200
O -17.64137200 -4.17333900 -8.61439800
O -13.88139800 0.90652100 -3.84992500
O -19.20652500 -3.00294300 -6.85106800
O -14.62424600 1.84536800 -1.49822700
O -19.90086500 -1.94976000 -4.46857500
O -14.96007100 1.85614000 1.16470600
O -19.96842800 -2.18072600 -1.83431100
O -16.07710100 2.72821700 3.39011900
O -19.42391100 -0.77681600 0.34705000
O -18.20958400 3.50968600 4.80374700
O -21.07827800 -0.69929800 2.36765900
O -20.68128300 0.08805100 4.90300200
O -20.82902000 1.84673700 6.80357900
O -20.65191100 2.12967700 9.47380900
O 0.47796700 12.05024500 -17.20738300
O -1.82692900 10.66808700 -17.33893600
O -3.20590700 9.36146800 -15.53537200
O -4.83449000 7.35783000 -16.11497500
O -6.26198400 5.81127700 -17.63687100
O -3.39918700 10.85768200 -11.38112500
O -8.52716700 4.55088400 -17.09154100
O -5.09737700 9.31652300 -12.78630900
O -9.45396200 2.22813000 -16.39576800
O -7.08967100 7.56830400 -13.03275000
O -11.32854900 0.33777900 -16.24200100
O -9.06917300 6.47321000 -11.55630500
O -13.35070700 -0.74128400 -17.54450900
O -10.09346200 4.05845600 -11.10773600
O -14.84781000 -2.91730100 -17.12495100
O -11.77827800 2.44940700 -12.43003600
O -14.07304000 1.15400900 -12.65577800
O -15.46319600 -1.02329100 -12.07865800
O -12.88926100 4.78648700 -7.61820100
O -16.93440200 -3.06864000 -12.74497300
O -13.96913300 2.38858700 -7.37754500
O -19.51031900 -3.67136900 -12.31723500
O -15.93261800 0.57488500 -7.56683500
O -12.99031700 4.44829500 -4.61374400
O -17.40363400 -1.56434700 -8.18927800
O -15.18518100 3.20451700 -3.74878200
O -19.56413600 -2.54397700 -9.47925500
O -16.44767100 0.94735100 -3.18104400
O -18.84418700 -0.08107200 -2.88134500
O -15.93623300 4.32579800 1.23676300
O -21.49373100 -0.33553300 -3.04472000
O -17.58718100 2.22413700 1.25312700
O -20.13397900 1.55160100 1.39822400
O -21.90833600 0.14014900 -0.05696300
O -20.92968200 2.65797800 4.26631700
O -4.48980100 10.72547400 -17.44970000
O -3.14853000 12.02981700 -15.46945800
O -5.25237700 8.09078400 -18.62597800
O -7.25971200 8.14997500 -16.80872000
O -11.00258000 3.90760400 -17.78232700
O -6.87418900 9.65185900 -14.67583200
O -10.37489000 4.43669900 -15.20141800
O -7.59591300 10.01553300 -12.12250500
O -11.50148000 0.71338500 -18.85874400
O -11.15575600 5.60827100 -12.96009600
O -13.21326300 1.91235300 -17.18901400
O -11.46130400 6.25952500 -10.42747400
O -12.96932900 7.57309500 -8.71131200
O -14.03708000 3.77605900 -12.34937900
O -16.78709700 -1.00166600 -14.36217200
O -14.10971000 3.66596200 -9.69828500
O -18.09784700 -0.77201700 -12.03636200
O -15.54546500 4.51652300 -7.59406600
O -17.26157700 0.46405700 -9.89804600
O -15.40614600 5.46400000 -5.11110500
O -18.57701700 0.78520700 -7.69064600
O -14.47592600 5.46875500 -2.60001000
O -18.20684500 1.04997300 -5.13979100
O -18.53877600 2.58163200 -2.98884200
O -19.31251700 3.17559300 -0.53779700
O -19.39385400 4.00535000 2.04146900
O -7.41087000 10.79374700 -17.00648200
O -9.31988300 9.41907000 -15.70126100
O -10.34474500 7.09950000 -14.98839300
O -12.65722100 5.78072500 -15.09472900
O -14.27070800 4.22296400 -16.47714900
O -11.33095300 8.91255600 -10.40372600
O -15.49048800 1.96149300 -15.84479600
O -13.51554100 7.70127700 -11.33613300
O -15.20389600 5.72278700 -10.97918300
O -16.32889800 3.34121100 -11.13235300
O -18.33841800 1.86362600 -11.91374400
O -16.57257400 6.88933400 -7.03700000
O -19.88184600 0.30582800 -10.35847000
O -17.73652400 4.64773100 -6.12879400
O -19.66321300 2.84456700 -6.40292500
O -20.66704700 0.39302300 -6.10692700
O -17.07591200 4.26686800 -1.49340600
O -19.47213000 5.00119000 -2.50396100
O -11.92125200 9.23643800 -15.33006800
O -10.24370300 9.11304200 -13.20974600
O -12.90662500 6.15650900 -17.71380200
O -14.92048600 6.75231400 -16.00114400
O -16.16049300 8.15442300 -11.27858200
O -17.55882700 3.88688500 -13.42941000
O -18.76508300 4.39129500 -11.12195600
O -18.86990200 4.24633600 -8.48206000
O -20.25548800 5.45105100 -6.53660100
O -14.75992200 9.11566200 -14.82227400
O -17.07827700 7.80227400 -14.84432300
O -17.87184500 6.42503900 -9.64286400
O -20.50405500 5.91040300 -9.77171400
Si 19.02237100 -6.71256300 10.48268100
Si 13.82115800 -8.53263800 14.63910000
Si 19.15265700 -5.04520700 6.23745500
Si 19.27778800 -3.60888000 10.01198400
Si 15.88221000 -6.42749800 10.23096500
Si 14.58583400 -5.57893700 14.69382600
Si 10.69768000 -8.63705100 14.94624100
Si 19.85744800 -4.44654000 3.26669300
Si 17.51205700 -2.84802500 7.62298700
Si 14.47828300 -6.13198600 7.53570600
Si 18.17633200 -1.77860700 12.13297400
Si 14.15852100 -4.51609100 11.85982800
Si 10.45186800 -7.95486200 11.94606300
Si 13.20746000 -3.36832700 16.23943400
Si 9.31419700 -6.29602000 16.34392000
Si 6.30104000 -9.19078500 14.80064500
Si 20.53423800 -3.59646700 -1.41114300
Si 20.27606000 -1.52240100 2.45306600
Si 16.93843300 -5.31737700 2.80619800
Si 18.67331100 -0.01638300 7.39263500
Si 14.44647000 -3.19499700 6.91771200
Si 18.62446200 1.21270500 11.32989300
Si 15.11111000 -1.62116000 11.54433800
Si 11.35860900 -5.24555600 10.80403600
Si 14.51749300 -0.65917300 16.00580500
Si 7.74629800 -7.28245900 10.62684600
Si 10.37351000 -3.65574100 15.25665900
Si 6.41542500 -6.11494200 15.26364400
Si 3.36382400 -9.79906600 15.31114500
Si 20.90863300 -2.09600700 -4.06264600
Si 18.74158800 -1.38962600 -0.16164700
Si 15.92341700 -4.83351200 -0.08817200
Si 19.16199600 0.59549700 4.40160900
Si 15.20224700 -3.01921700 3.90034800
Si 16.89231900 1.98030400 8.86589200
Si 13.30646900 -1.24485900 9.03733800
Si 17.69341000 3.41593100 13.21118200
Si 13.81311700 0.59934100 13.29825100
Si 9.94860000 -2.92802400 12.31753700
Si 13.42995000 1.08529600 18.31424800
Si 6.09795500 -5.35406200 12.33468700
Si 9.24103000 -2.13823800 17.65037500
Si 2.72918700 -8.92700400 12.41824100
Si 5.52361400 -4.34378500 17.70443100
Si 2.06319700 -8.15251500 17.59347500
Si -0.68945200 -11.17962800 16.09634700
Si 21.38248200 0.89490800 -4.59347700
Si 18.04698800 -3.00637600 -4.78424400
Si 19.82198500 1.47677900 -0.20964400
Si 15.70992100 -1.82776600 -0.67663900
Si 19.67816700 3.53449700 3.67521300
Si 16.19327600 -0.14581700 3.61704000
Si 18.03475300 4.83317000 8.68422400
Si 13.81378500 1.60889100 8.16595600
Si 18.55318700 6.28108000 12.54649800
Si 14.70722200 3.43870000 12.56235100
Si 10.89691300 -0.07045200 12.70608100
Si 13.57179400 3.99435600 17.34660300
Si 6.93632700 -2.40775900 12.02523700
Si 10.46902600 0.66180300 18.05959200
Si 3.09881500 -5.89764500 12.07592500
Si 6.25846300 -1.41505200 17.26678700
Si -0.12441000 -9.62274700 11.56376600
Si 2.63986900 -5.18146500 17.76825000
Si -0.51762100 -8.06304700 15.81348900
Si -3.67528900 -10.85515600 16.60472200
Si 20.51492200 0.27756600 -7.50376700
Si 17.64185200 -3.03264300 -7.83546700
Si 19.41399900 2.56629200 -2.95614500
Si 15.70383800 -1.28985100 -3.68414000
Si 17.95237700 3.52415200 1.11928700
Si 14.46734700 0.36622700 1.04144800
Si 18.43450700 5.47331100 5.64217500
Si 14.30851700 1.77215600 5.12146200
Si 16.48794000 6.94604200 10.30873300
Si 12.78277100 3.59369200 10.15955600
Si 17.53927700 7.88921200 14.94552800
Si 13.48532800 5.37490200 14.59110800
Si 10.00370400 1.62739900 15.09169400
Si 11.82557900 6.19252000 18.43444900
Si 6.01762300 -0.69467200 14.27947300
Si 8.59837600 2.65834400 19.52266000
Si 2.29680600 -4.40194600 14.70532700
Si 4.06747300 0.15154800 18.91739600
Si -1.00969800 -6.97845400 12.94995000
Si 0.72053200 -2.98355900 18.68782400
Si -4.40411400 -10.43896700 13.64073500
Si -2.23316100 -6.32100500 17.65406900
Si 17.51647300 0.11439800 -7.97140200
Si 20.57267100 5.16672000 -4.10893500
Si 14.66366700 -3.64619100 -7.99025500
Si 16.54410700 1.73816100 -3.51514200
Si 19.37737000 6.22865200 0.49777000
Si 14.82139400 3.41364800 0.52227000
Si 18.30813000 8.26343900 4.44451100
Si 15.43169800 4.68513100 5.07366100
Si 16.12845600 9.83703200 9.18695000
Si 13.43159700 6.55302100 9.81864900
Si 14.53506300 8.27511100 14.31333100
Si 10.53737700 4.50248100 14.15788300
Si 7.15354800 2.07613000 14.03303300
Si 8.82286300 5.56940700 18.65396300
Si 3.19202900 -1.68584100 13.58343800
Si 5.55267000 2.82478400 19.00607700
Si -0.35463800 -4.03763200 13.21057800
Si 1.41795900 -0.25656000 17.48013300
Si -3.97160900 -7.60174600 12.48289400
Si -2.07486300 -3.30540000 17.38201600
Si -7.13238000 -11.81573600 13.59575900
Si -5.27878900 -6.65022700 17.48346900
Si 17.21965600 1.72002600 -10.59762500
Si 19.53800400 5.17424300 -7.03143700
Si 14.25764300 -1.46221600 -10.17319400
Si 15.80791900 2.13142300 -6.41567700
Si 19.39330500 7.26696400 -2.28448400
Si 14.82034800 4.00467100 -2.50309600
Si 17.04452700 7.93108600 1.68959800
Si 13.45352600 5.12350800 2.73202100
Si 16.25749200 9.89490800 6.07512800
Si 13.31881000 6.14349800 6.73564600
Si 12.54349300 8.64512900 11.94296500
Si 8.67066900 6.42447600 15.68022500
Si 5.18974600 3.48621300 16.01180900
Si 1.23401300 0.46478800 14.42355000
Si 3.65734800 5.19343900 19.44518400
Si -4.04129900 -7.86693900 9.40888500
Si -2.42769000 -2.26595200 14.55129500
Si 0.02655300 0.99660400 20.00119200
Si -6.61899800 -12.90540400 10.70303800
Si -5.73931200 -6.15044500 14.54395600
Si -3.90420500 -2.69169000 19.67861800
Si 14.08114200 1.52302000 -10.61114300
Si 16.48934400 4.99769300 -7.21928700
Si 18.95790500 10.34998600 -2.56481700
Si 9.03475900 -3.83935700 -14.54771400
Si 12.73051000 1.82810000 -6.44521200
Si 16.33106100 6.64433700 -2.82726500
Si 17.64884200 10.96928400 1.46074000
Si 14.09022500 7.76468000 1.40710100
Si 13.34356800 8.93666300 5.64658500
Si 5.80243200 6.15562900 14.72317500
Si 2.47159000 3.23853400 14.69548700
Si -1.73682700 0.68475800 14.02625500
Si 0.81269100 3.91931200 19.37883700
Si -6.31427900 -9.97558800 9.68102500
Si -5.36403800 -3.07944900 14.09916300
Si -2.93804500 0.22713000 19.62633000
Si -13.35587300 -14.26744700 7.55437100
Si -8.40221200 -7.48229400 14.51407600
Si -6.75763800 -1.80629900 19.04778400
Si 9.83558500 0.53330500 -17.38717300
Si 15.54353800 6.06146300 -9.94754400
Si 18.51601800 10.09930800 -5.62146900
Si 6.90435100 -3.68485600 -16.76073600
Si 11.99065700 3.25554500 -9.05459900
Si 15.20449500 7.20478600 -5.56808400
Si 16.51599200 11.62337900 -1.29704000
Si 13.74166500 7.88594400 -1.61580300
Si 13.27205000 10.31829600 2.96987800
Si 0.28113300 4.52445800 16.43028700
Si -11.50574900 -9.17182700 4.25465300
Si -5.43486400 -3.61161600 11.03883900
Si -3.15544800 1.29019800 16.75425900
Si -13.62814700 -14.00438600 4.52672300
Si -8.24687700 -8.34398400 11.47968400
Si -7.24431900 -1.56451500 16.06114100
Si -4.57358700 2.68510000 20.47866400
Si 7.06826000 -0.60892100 -17.05815200
Si 12.44982700 6.17446100 -9.95237900
Si 15.56404300 10.03348800 -6.51919500
Si 6.77297100 0.52324100 -12.97021800
Si 12.16890600 6.99858100 -5.55610500
Si 13.60601700 10.87629800 -2.02243800
Si -2.75603700 4.37504600 16.94493800
Si -14.09713000 -10.90645200 4.58836500
Si -8.08409300 -5.29774600 10.85039900
Si -5.96847700 1.13449200 15.30603000
Si -15.20536100 -8.26613500 9.67944500
Si -9.64024400 -3.36494700 16.12303700
Si -6.31553800 4.61538700 18.88749100
Si 9.40580900 5.39671400 -16.01857500
Si 14.32023800 10.94143400 -9.19019000
Si 5.84307300 1.81654400 -15.53930700
Si 10.87527900 8.07994900 -8.11870500
Si 13.27617600 11.53096800 -4.96789500
Si -12.36327100 -5.01494900 5.52622400
Si -6.09921400 0.81860300 12.20441400
Si -15.50312900 -9.43704600 6.80920600
Si -9.53706800 -3.68881200 13.04649000
Si -7.65707900 3.48910000 16.38095600
Si 6.46618400 4.71464700 -16.45065000
Si 11.24554800 11.01036500 -8.92176500
Si 3.91113000 -3.97062500 -16.39674800
Si 5.22660700 4.86266100 -11.38184000
Si 10.22543500 11.13306200 -4.74829800
Si -14.50796200 -12.10881800 0.38395100
Si -15.07455800 -6.48975400 5.83260100
Si -8.78150100 -0.75965300 12.41580700
Si -16.71001200 -14.01760900 4.53189700
Si -16.86955100 -3.82030100 10.58562100
Si -9.91971100 1.63130100 17.43956200
Si 6.66539200 0.63742100 -19.82325300
Si 7.45479000 9.60459200 -14.91072900
Si 3.58591000 -3.23763300 -19.34932800
Si 4.60206000 5.78962200 -14.28761700
Si 9.39910500 12.83663500 -7.22706900
Si 2.88977200 -1.86625000 -14.40454900
Si -0.95331000 -5.15814400 -15.65571100
Si -14.21846000 -11.00455100 -2.50216100
Si -15.79230100 -9.96968700 2.22432900
Si -13.48178300 0.02817000 7.25306600
Si -18.67025300 -13.19358500 2.37257400
Si -16.58020800 -4.50539400 7.57987600
Si -10.42377000 0.88430600 14.45235300
Si 3.73809200 -0.21722000 -20.07288800
Si 4.47285700 8.90625900 -14.63072500
Si 0.76309200 -3.02498600 -20.54885700
Si 2.86835600 1.15280000 -15.18699400
Si 3.14014900 10.34253500 -10.41842400
Si -0.06690500 -2.22273400 -15.30829900
Si -3.93277500 -5.92916500 -15.28064900
Si -13.56381700 -9.55896900 -7.50751500
Si -14.02586200 -7.96733600 -2.78226200
Si -17.29350600 -11.36038100 -2.65071800
Si -14.68244800 -7.23516000 1.36317600
Si -18.93655100 -10.19532400 2.00132900
Si -16.10326000 -1.54890700 6.93526300
Si -18.55511300 -9.19605500 6.80807500
Si -18.08551300 0.38841500 12.01825100
Si 5.47327000 5.54864700 -19.23643000
Si 2.19837700 1.56376700 -18.14174500
Si 2.83380500 11.17076900 -13.32434200
Si -0.69329900 -1.62100100 -18.23629000
Si 1.25551000 2.94825300 -13.35492800
Si -4.32033200 -5.70009900 -18.31174300
Si -1.97534300 -0.62847200 -13.50499300
Si -5.81926800 -3.77669800 -14.27068200
Si -9.24661800 -7.24379100 -14.32465700
Si -12.86038900 -8.81784200 -10.42850100
Si -14.37942600 -7.22241200 -5.71084000
Si -18.63738300 -10.34148100 -5.18344600
Si -16.03897700 -6.37199300 -1.23639200
Si -19.20755200 -9.62818700 -1.03985500
Si -15.83518200 -5.11223600 3.17662200
Si -19.80472300 -8.23324400 4.12076500
Si -17.47423900 0.35264500 8.95591700
Si 2.86359900 3.98645300 -19.84462400
Si -0.85246500 1.44437000 -18.47280600
Si 1.71218900 5.25581500 -15.36249300
Si -3.41110700 -2.85558300 -18.98761300
Si -1.77235300 2.48769700 -13.29392700
Si -7.31018800 -5.99375000 -18.93468400
Si -4.71998500 -0.97871500 -14.70675200
Si -8.73405600 -4.28158200 -14.83292900
Si -12.18640400 -7.59112900 -15.17880000
Si -12.70280100 -5.92248700 -11.27156900
Si -15.63864400 -9.95084500 -10.98856300
Si -13.75080700 -4.33339200 -6.42280600
Si -17.40784700 -7.74705700 -6.09767400
Si -14.70482300 -3.76508700 -2.17597700
Si -19.09753300 -6.58647100 -1.69309400
Si -15.30511200 -2.16071800 2.62904200
Si -18.80990800 -5.60691500 2.91178300
Si -19.58386600 -4.24012900 7.38122700
Si 3.99027300 10.04492500 -17.41454100
Si 1.00034900 5.86709100 -18.30788500
Si -2.27236500 3.16356800 -16.33313900
Si 0.62815800 7.17858200 -13.26919400
Si -5.11439300 -0.66218100 -17.71308600
Si -3.85189800 4.36873500 -12.06669200
Si -9.12875300 -3.82630400 -17.83510500
Si -6.31885600 1.11794000 -13.10591600
Si -13.08165700 -7.18897400 -18.06848300
Si -10.13236200 -2.57526700 -12.75149700
Si -14.01117300 -5.45945600 -13.96283500
Si -16.75088000 -9.40661000 -13.83561400
Si -13.86692800 -3.86127100 -9.42015200
Si -17.21041000 -7.84237600 -9.20273800
Si -15.81166100 -2.75254000 -4.81094800
Si -19.52115000 -5.96790400 -4.70203100
Si -16.03911000 -1.78226100 -0.34066400
Si -20.32740600 -4.83040900 0.42898800
Si -17.45584700 -0.68689400 4.28623600
Si -20.81775900 -4.03473900 4.56866800
Si 1.65088100 8.78845400 -18.96194100
Si -2.06677800 5.95842300 -17.83610000
Si 0.16135300 10.13338800 -14.15346800
Si -4.88603400 2.44521100 -17.78815500
Si -2.40496800 6.96166200 -12.82398100
Si -8.19989600 -0.88311800 -17.66637500
Si -6.36240800 4.12640200 -13.77781000
Si -11.91207400 -4.50823800 -18.94171300
Si -9.23689800 0.38339700 -12.72881500
Si -12.88138400 -2.63420900 -14.26397400
Si -16.96920000 -6.40441500 -14.50976900
Si -12.86372100 -0.91466300 -9.65201300
Si -16.72420400 -4.92007100 -9.75242000
Si -13.73941300 -0.43732600 -4.77641800
Si -18.87962600 -2.97223300 -5.25039100
Si -14.65930700 0.92424900 -0.14877600
Si -19.08859600 -2.16222600 -0.46462200
Si -16.99677000 2.38002700 4.69265900
Si -20.43203200 -1.10051100 3.80969000
Si -20.39292500 1.10617400 8.19285200
Si -0.19664100 10.54473100 -17.18073000
Si -3.29320600 7.74504400 -15.72199500
Si -6.91150400 4.55333400 -16.82731000
Si -3.93569800 9.31844600 -11.63211500
Si -9.83529200 0.78894900 -15.73870200
Si -7.48755500 6.37797500 -11.98780200
Si -13.32939500 -2.33986100 -17.27083700
Si -10.69751000 2.54486000 -11.20340800
Si -13.98067100 -0.45752700 -12.46871700
Si -17.97978200 -4.28403300 -12.49314100
Si -14.30663000 0.80286200 -7.55882600
Si -18.45010000 -2.82198900 -8.27735000
Si -15.01453900 1.73562700 -3.06740100
Si -20.05436700 -1.15482600 -3.07637200
Si -16.12822700 2.77785500 1.77147400
Si -20.63448900 0.05234200 1.00512800
Si -21.37056300 1.47185200 5.32336500
Si -3.17311100 10.69635600 -16.45627300
Si -5.91260400 7.35619300 -17.30458000
Si -9.84906700 3.78016900 -16.61046800
Si -6.64927600 9.12287400 -13.15220100
Si -12.35974600 0.53668300 -17.46079800
Si -10.42119900 5.59432700 -11.50924900
Si -13.26796900 2.50566300 -13.01624700
Si -16.82338100 -1.46315500 -12.80269000
Si -14.13370800 3.83978200 -8.07524400
Si -17.25367300 0.04750300 -8.32111400
Si -14.50133600 4.63911800 -4.03529300
Si -18.00350900 1.13127600 -3.53009900
Si -19.09749000 2.73213900 1.01859200
Si -7.71866400 9.48923000 -16.04468300
Si -11.10802800 5.72101200 -14.56845500
Si -14.04098100 2.68025700 -16.04116600
Si -12.31931000 7.60598600 -10.21624900
Si -14.89704700 4.12648000 -11.03721700
Si -18.38840800 0.47505900 -11.06608000
Si -16.29854000 5.36973200 -6.45752300
Si -19.27566700 1.26632000 -6.33054400
Si -18.59336300 3.74049900 -1.87548100
Si -10.45120700 8.70618600 -14.80750800
Si -13.68499000 5.72288500 -16.32787600
Si -14.95921700 7.12513000 -11.74161800
Si -17.74226100 3.36549600 -11.89434000
Si -19.11911400 4.28970900 -6.87098000
Si -15.45888300 7.63541400 -14.76816500
Si -18.99372800 5.22264500 -9.76399600
O -12.76276800 -7.97224900 -16.66632200
O -12.52154500 -2.61084500 -15.86550400
O -13.18882000 2.64310800 -14.64518300
O -15.04429000 6.89974500 -13.36318500
O 20.77366100 -4.92972800 13.13940000
O 20.55982600 -7.29167900 14.44741500
O 18.38639400 -5.83742300 13.86224400
O 17.59449800 -6.34737600 16.34694200
O 20.39648900 -2.48461900 14.88232800
O 18.23274300 -3.82421800 15.60873200
O 18.43039800 -1.28620700 16.30056000
O 17.12790100 -0.04454800 18.30568300
O 19.35436700 3.77805600 16.48326500
O 18.20222700 1.34621200 16.27425500
O 16.86699900 3.33089400 17.37895000
O 16.58473700 3.47462500 20.01086400
O 17.76279700 8.31659400 18.41371600
O 16.98884200 5.74969300 18.56297500
O 15.21198200 7.65117800 17.83836300
Si 19.87022800 -6.28605600 13.33866100
Si 17.57543900 -5.24248800 15.12290300
Si 18.77814000 -2.37094300 15.11737400
Si 17.44996700 -0.05513700 16.68523400
Si 17.96123200 2.95567000 16.22747300
Si 16.32205600 4.25280100 18.58259100
Si 16.79875900 7.15777100 17.76613100
O -15.99713700 -7.81105900 -20.44877400
O -15.21593500 -5.25137700 -20.17387500
O -17.18840900 -6.23727600 -18.63074200
O -17.18195800 -4.11753500 -16.99838700
O -19.46987500 -5.42063300 -17.49607600
O -16.51164500 -2.77629100 -19.20607000
O -17.06160900 -1.46150100 -16.94379900
O -17.87525000 0.81455200 -15.89387600
O -19.22303500 -1.46616900 -15.34350000
O -16.87673900 1.90197000 -18.10950900
O -17.65274100 3.45738800 -16.03660300
O -18.65902300 5.69936200 -15.02475300
O -19.88592500 3.34135600 -14.59988100
O -19.71762300 8.14011500 -14.88395400
O -18.50369600 7.05847300 -12.72155100
Si -15.77213700 -6.58855000 -19.38083300
Si -17.83177900 -5.58432000 -17.29636000
Si -16.39197100 -2.82305000 -17.56177200
Si -17.73731400 -0.78860700 -15.63783300
Si -16.97206100 2.02944300 -16.46884000
Si -18.42348100 4.10673700 -14.77076800
Si -18.48217300 7.17324200 -14.37725400
O 12.00730100 -4.33319500 -10.80448500
O 15.32213400 -0.15087100 -13.51840000
O 12.99102800 -4.20086400 -15.73040700
O 12.24859300 -3.45838000 -13.29999600
O 10.58912500 -2.18801100 -11.58134200
O 15.13673600 2.47092800 -14.04598400
O 13.10521200 0.82710200 -14.72018900
O 12.40244800 -1.65066900 -15.26860000
O 10.46734500 -3.48685300 -15.26581600
O 10.69227800 -0.25942800 -9.15411800
O 14.13452200 5.19504300 -13.33413600
O 11.20251400 0.39582800 -16.49111100
O 10.74902900 -0.10943900 -13.90843800
O 10.52534800 0.92047200 -11.50057000
O 8.42329200 1.01391800 -9.78880400
O 12.15824800 6.86439100 -14.07777300
O 11.61495500 4.31950000 -13.32109200
O 9.84985300 2.34920600 -13.64685600
O 8.37721900 0.25357600 -12.80243100
O 7.90572600 5.10682400 -7.09497200
O 12.16286800 9.25089700 -12.17772200
O 9.30121200 4.77738000 -14.50621700
O 9.40016500 4.29082200 -11.89503900
O 8.70591900 5.58868100 -9.72327200
O 6.89736200 7.27262900 -8.61706600
O 10.48121200 11.11205600 -13.12951200
O 9.56408100 9.09247700 -11.58063800
O 8.49385600 6.72983800 -12.10149100
O 6.85346400 4.70398500 -11.47210500
O 7.37874300 9.76243100 -7.12183800
O 8.22590800 8.65539900 -13.82318800
O 6.93492600 8.80784600 -11.47070900
O 7.04019000 10.64707800 -9.58864400
O 5.41546200 11.53021200 -7.61184100
O 6.21342100 11.31579100 -12.01805100
O 4.67656300 9.76137900 -10.44304600
Si 12.02963500 -2.99537800 -11.75117600
Si 14.28878400 1.12032200 -13.62484100
Si 12.03431100 -3.19146700 -14.88350200
Si 11.87139400 -0.13152400 -15.10236200
Si 10.07036900 1.03448700 -9.94198000
Si 12.57616100 5.62615400 -13.06870600
Si 9.88194400 0.86725600 -12.97844900
Si 10.05734900 3.92156000 -13.34926600
Si 8.27103000 6.38017800 -8.37040900
Si 10.81220100 10.12355100 -11.85108500
Si 8.35009200 5.33650900 -11.27870500
Si 8.30907500 8.32567700 -12.23162400
Si 6.95413000 11.06636600 -8.01674700
Si 6.21655900 10.12323500 -10.87859100
O -10.31266200 -14.64109000 9.98462600
O -8.02517000 -9.50042300 5.84689500
O -10.82491800 -12.33173000 6.03294000
O -10.04978000 -12.37518600 8.56758500
O -10.14167500 -12.28352300 11.24314100
O -7.42407400 -7.36966900 7.38146200
O -9.62485100 -8.76064900 7.87258500
O -11.65043800 -10.42226900 7.69813300
O -12.59974900 -12.86689500 7.94969100
O -12.08112400 -10.16760300 10.75477300
O -8.65308700 -3.65393300 6.97663000
O -11.20574400 -8.63272100 5.76990700
O -12.09301200 -7.81403200 8.07589300
O -11.74716700 -7.52550000 10.68917300
O -11.57495400 -8.83614700 13.02097800
O -8.45369800 -1.97247800 9.18278900
O -10.85160200 -3.12363200 8.69119400
O -11.99964100 -5.41752000 9.12929600
O -14.09575100 -7.05937400 9.58543600
O -12.32785600 -5.82074300 13.10580100
O -10.05621800 0.57860800 8.78711000
O -12.44804900 -4.04800400 6.84631900
O -13.47614200 -3.22457800 9.16136700
O -13.51461500 -3.88376100 11.68544200
O -13.19995500 -3.59084500 14.33188400
O -9.61285000 2.21469300 10.91379400
O -11.97926500 0.95736100 10.64243800
O -13.36611700 -1.29921000 10.93671600
O -15.62908300 -2.74646400 10.66402400
O -13.42180300 -1.13927300 15.77333900
O -13.80153900 0.29873500 8.83843800
O -14.55185000 1.05435600 11.24040600
O -14.54222900 0.25125200 13.76022000
O -13.49063900 1.57784800 15.84256000
O -14.74780500 2.83045800 13.21380900
O -16.79595800 1.20140800 12.62661200
Si -9.61949300 -13.15559900 9.93260200
Si -8.07077500 -8.88524900 7.36790900
Si -11.26431700 -11.99774200 7.56762400
Si -11.13782300 -8.92942000 7.36461100
Si -11.25353000 -8.90671700 11.39647900
Si -9.22648200 -3.33724000 8.69091200
Si -12.47756400 -6.94937900 9.36734800
Si -12.19886700 -3.96743200 8.45214300
Si -12.53735500 -4.20353700 12.94096300
Si -10.36654300 0.84679200 10.37462400
Si -13.99152200 -2.77185500 10.61532800
Si -13.39715200 0.23526700 10.41364600
Si -13.34777800 0.23038600 14.87673900
Si -15.16300900 1.31691900 12.70403000
H 19.67773100 -8.61652400 9.52134500
H 14.52805800 -8.36369900 12.51842300
H 13.81658100 -10.51090900 15.67349200
H 20.14945900 -6.03785400 7.96785000
H 17.27810500 -6.14527100 6.87303400
H 20.89078100 -3.47948100 8.50768500
H 14.19320200 -7.85753700 9.96266500
H 9.58058600 -10.54129700 15.30879100
H 21.08231400 -4.93183400 1.45586700
H 15.15523500 -6.05081500 5.38717200
H 12.30268000 -9.19416500 11.96349200
H 12.39604700 -2.43042700 18.10539700
H 8.01148200 -5.87151600 18.13088600
H 7.59444500 -9.02649200 12.98638000
H 7.99676800 -8.98653700 16.25078700
H 21.79630500 -2.95065900 0.31180200
H 19.66088900 -5.16197300 -2.73992000
H 21.77515800 -0.52365600 1.16557700
H 20.07452100 -1.09365900 8.76216100
H 17.62654700 -6.79734600 4.33884100
H 20.23642000 1.28311200 9.80887300
H 12.47907700 -6.77224000 8.37172600
H 5.82920600 -8.46227600 10.85568100
H 1.85121600 -11.40006000 14.84347000
H 21.55241900 -2.34944500 -6.17504400
H 18.06813200 -4.83873200 -0.74437200
H 10.06733400 -5.98738200 9.13445500
H 7.33120500 -6.16022000 8.73311500
H 14.85762900 2.13068700 19.70868200
H 9.84676900 -4.18060600 18.37413600
H 4.80840600 -9.74705000 12.44950600
H 7.26317600 -3.77829700 19.01425600
H 0.97070900 -9.82585700 18.59801600
H -0.58702200 -11.93194100 14.00632400
H 1.25313800 -11.60647900 17.09379700
H 22.49333000 2.77003400 -4.09362400
H 21.02714500 2.05003600 1.58418300
H 17.45993600 -4.34218500 -3.06795400
H 21.17103600 4.48284100 2.33741900
H 14.65998200 -6.48005900 -0.96624400
H 19.40900000 3.70727100 10.05526200
H 14.41576000 -2.83442300 1.78480200
H 19.89298300 6.24388400 10.78174500
H 12.06373500 -2.66851700 10.28159000
H -1.96154800 -10.58725100 12.43751400
H -5.44568900 -12.18010400 16.19947300
H 20.20981100 -1.78520900 -8.31708500
H 18.79419500 -4.16478100 -9.37533900
H 9.07556400 0.10153100 11.40731900
H 5.21880700 -1.27735900 11.14966200
H 13.78813800 6.73394500 19.34995900
H 1.40725100 -4.67476500 11.22546900
H 9.54881500 3.80991200 21.19239400
H 0.30307100 -10.38692400 9.49322000
H 3.02517500 -1.50904200 20.01725500
H 0.59176500 -1.82630400 20.60677900
H -4.20809800 -12.42460800 12.64354800
H -0.35920300 -6.12268600 18.87113000
H -3.06489700 -8.98697100 17.70308200
H 20.81730200 2.15951400 -8.68421900
H 22.34863100 5.14668200 -2.76015400
H 20.27999700 6.89151700 2.42714800
H 13.64934300 -5.63211800 -7.94135200
H 13.47632900 -1.39946200 -4.03760900
H 19.65026900 9.43724000 3.09006400
H 12.91461100 0.51241900 2.66787800
H 17.02514300 11.87035000 9.09274900
H 12.76997400 2.82531000 3.83265800
H 18.34706700 9.35462800 16.43645300
H 11.40429700 1.97364400 10.96124200
H 12.75998900 7.28728600 16.69645300
H -7.78859200 -13.05138700 15.33505700
H -5.52670000 -8.76352800 18.16726300
H 16.90459100 1.06190800 -12.72409900
H 19.19978300 3.76479400 -8.73079800
H 16.48599700 -1.24261600 -10.24729700
H 14.75578900 -2.76227200 -5.89906400
H 14.09474900 10.06052800 10.16958500
H 14.09634600 10.35050500 15.07087800
H 10.66222800 4.36882100 11.90891900
H 8.43410500 3.36563200 12.68816300
H 6.86874700 5.59455600 19.80522100
H 3.12798300 -3.01578600 11.75562400
H 0.44842100 -2.09975400 12.40208800
H 2.92541700 6.76462100 20.85148100
H -1.93883900 -8.66927500 9.46656700
H 1.83604600 0.28758600 21.10532200
H -5.51665000 -14.53228600 9.64479100
H -2.86419500 -4.61140900 20.23068900
H -8.73165700 -10.23663400 13.78176200
H -5.70580100 -4.52848900 18.17521000
H 17.57653400 3.93285600 -10.53984100
H 19.49553700 7.40725700 -7.26200700
H 19.62815600 12.35901100 -1.88251800
H 19.63100400 10.84012600 0.46376800
H 9.93020800 -4.92716100 -12.82482000
H 13.15079600 0.03492000 -7.74668400
H 13.48611400 4.66771500 -4.23622900
H 15.21463900 11.71610100 5.27684000
H 12.01433400 5.12661000 4.48224200
H 12.20237500 4.25734000 7.24498200
H 11.46127300 10.57278200 11.58977900
H 11.29577300 7.33657400 13.34483900
H 10.36198500 7.80357100 16.18937800
H 4.22496400 5.85822700 17.35465500
H -4.32527300 -6.62903600 7.55986500
H -11.90786700 -15.28176400 8.90626600
H -7.49093100 -8.29920300 16.40483900
H -8.62436300 -3.03360000 18.76709800
H 9.40531300 0.09156400 -19.53485900
H 15.12488800 4.04218200 -10.80590100
H 18.08943800 7.95403500 -5.17378300
H 8.01558100 -3.31724500 -18.65500500
H 9.12214800 -2.08460400 -13.15134000
H 17.41197700 11.22605300 3.70242400
H 13.31719200 9.66097700 7.78740300
H 6.27770400 4.70567000 13.06667000
H 4.27828700 7.68462300 14.07376000
H 3.82170000 4.50311500 13.39054100
H -3.44906400 1.13782600 12.63196100
H -10.41844300 -11.10470200 4.41587700
H -3.88103800 -5.17161600 10.67164900
H -0.86010700 5.42979800 19.28778500
H -12.72829000 -15.57182100 3.22135800
H -5.19016200 2.79504300 22.61831200
H -15.54637800 -13.82622200 7.19053400
H -10.14052600 -6.02577900 14.51556100
H -6.05928300 0.25832200 19.67201700
H 8.49043000 2.27725700 -17.78057200
H 15.71606100 8.25544800 -10.42410600
H 20.23123100 10.36667300 -7.04861200
H 15.95957900 13.14179500 -2.85324100
H 6.61148200 -1.53128400 -13.82951200
H 11.93347400 5.14554800 -6.81660000
H 12.85760500 5.84887200 -2.03337800
H 15.08729600 11.64799200 2.80305600
H 11.29496600 11.20168300 2.35668700
H 1.68825700 6.16257400 17.04892000
H -11.32174800 -7.03160100 3.62728600
H -6.56419200 -2.21614700 9.68893600
H -2.66046600 3.80495600 20.07278900
H -14.02749400 -9.57057400 11.05422400
H -8.18321000 -4.81284600 17.07395100
H -7.45324700 3.98605700 20.69439800
H 10.48334300 3.69177000 -16.97622000
H 13.60219900 9.59957800 -10.81466700
H 5.58266800 1.84301800 -11.57081700
H 11.31913400 7.26814800 -3.49285300
H 12.30762100 11.01964700 -0.17349500
H -4.87032100 4.62465800 16.19764300
H -10.76963000 -6.48847800 6.06118800
H -4.90412300 -0.56652400 10.92449700
H -3.53424200 5.62544600 18.64104000
H -17.17657000 -7.41620900 9.01109800
H -11.87179900 -3.57335400 15.87452400
H -5.99134200 6.80454800 19.27976500
H 9.08935900 7.61368100 -15.85513800
H 15.58468600 12.52340200 -10.16475200
H 12.91032100 12.94568900 -6.66531900
H 2.09452100 -5.18400300 -15.83589000
H 4.44385700 3.48258000 -9.80911000
H 9.88568900 8.92705500 -4.90263100
H -13.21915800 -13.03916300 1.97537300
H -16.18640300 -13.41337600 1.13998900
H -13.34869600 -3.68017200 3.97745600
H -6.02282100 2.97880400 11.60712400
H -9.29335800 3.84422400 14.89258200
H -18.51156800 -15.32326600 4.55088700
H -16.54771000 -5.83306500 11.48727700
H -8.87810600 0.18847300 18.82386400
H 7.39052600 0.24155800 -21.89469800
H 6.95351500 9.15700000 -17.03090600
H 5.47231200 -4.41747600 -19.17183300
H 5.52039400 6.66893200 -10.04674700
H 10.84104600 11.51082300 -2.59457900
H 4.19969400 -1.40032500 -12.66274700
H -0.77407600 -4.42087600 -17.75603100
H 0.23112000 -6.80196000 -14.70255700
H -12.54247000 -12.14867900 -3.43040600
H -12.14987400 -1.71008600 6.79731400
H -18.62433000 -12.73957100 0.16555200
H -16.79122600 -11.97767900 5.54107200
H -18.37115900 -2.31733900 11.29100600
H -11.24452000 3.07757800 18.53804700
H 6.58496000 2.89622100 -19.60268200
H 8.75054300 11.27445000 -14.19743800
H 8.71883900 14.92977900 -6.66853000
H -1.29008100 -3.91941400 -20.63885000
H 2.13863800 8.46520000 -11.13842400
H -5.52272300 -7.26117000 -14.41972200
H -12.98390100 -10.47070600 -5.54567500
H -15.77946800 -9.87580800 -7.64837500
H -12.78276500 -6.99108000 -1.23017700
H -12.51693100 -7.72637500 1.41286000
H -16.71005000 -13.06132200 -1.30550800
H -14.12220300 1.85570100 6.11946600
H -10.28351700 2.49727500 12.90393900
H -20.43042900 -14.59806400 2.37066900
H -19.18932800 -10.40249100 8.58145400
H -18.44468000 -0.88132400 13.80732600
H 7.67950600 5.46479100 -19.50257000
H 2.03329700 -0.59548100 -21.48511500
H 1.16139600 -2.94198200 -22.74991900
H 2.09237100 11.06237000 -8.57667900
H 2.90497300 3.37979000 -11.88731600
H -2.19024100 -6.25161000 -18.61518400
H -5.56294300 -4.99770800 -12.41444100
H -7.76884800 -7.40462200 -15.98915400
H -10.10436800 -7.77454800 -12.32238800
H -10.98976900 -9.91565900 -10.96016100
H -18.60178800 -10.50483900 -7.40856400
H -19.15740400 -7.05960800 7.33747900
H -19.82158200 1.59626800 11.24973300
H 4.52708900 7.59990100 -19.04651100
H 3.90734900 12.22753300 -14.98263100
H -8.15352200 -7.99998700 -18.43845900
H -12.30767100 -8.70228100 -13.22348900
H -10.76425400 -5.22643100 -12.15541200
H -12.39878600 -2.55451800 -6.36363500
H -15.09042300 -11.50113100 -9.48251900
H -12.88604600 -4.84374500 -2.85022400
H -20.29702100 -8.82209200 -4.95945900
H -13.52154900 -1.03088400 1.91418100
H -20.36193400 -10.23536500 -2.88768200
H -15.67818200 1.60264200 9.44737000
H -21.78841700 -8.27445700 5.18662500
H -19.66506100 -5.15449300 9.41295900
H 5.75028800 11.13514400 -18.22588900
H 2.51227300 2.21273200 -21.20500700
H -2.61808500 2.26755300 -19.60627200
H -3.87904300 -3.76499300 -20.98451200
H 1.99213700 5.80556900 -12.12307100
H -8.88342900 -5.63768300 -20.48960100
H -5.47118500 4.66424900 -10.55331000
H -5.23181000 2.13374900 -11.40543000
H -12.09258200 -7.45382900 -20.04136800
H -10.33315600 -3.15493200 -10.60152500
H -14.60837000 -9.25010800 -14.48830100
H -19.02450700 -2.52252000 8.72952400
H 2.45630100 11.62298600 -16.94870000
H -10.85058900 -0.02258000 -9.40698100
H -17.84873500 -10.77983300 -15.23483400
H -12.60323100 -2.18651700 -3.95674500
H -18.69617600 -7.11511400 -10.73149900
H -12.92827300 -0.36423900 -0.69108300
H -21.65342300 -5.24114700 -4.85181800
H -16.50997200 2.20284200 6.87429800
H -22.11576900 -4.46599700 1.74657700
H -21.97397400 -5.87456500 3.99955100
H -20.88740900 -1.08168600 8.10048600
H 1.50132100 7.66268900 -20.90795600
H -3.85203600 6.62126900 -19.03619700
H -2.02593000 9.96782500 -13.72593800
H -4.11387800 4.11987100 -19.07843800
H -7.83130900 0.99843700 -18.82656800
H -4.04517400 8.83524700 -9.45458000
H -13.24053900 -4.99994200 -20.67586800
H -5.91982400 7.19913700 -10.59990400
H -12.27327800 2.41782800 -9.60743900
H -19.07940100 3.20202500 5.04175600
H -21.32457000 2.78771400 9.36943200
H -0.08077100 12.77248800 -17.45658900
H -2.58256100 11.11428800 -11.79544700
H -12.79572400 5.63120000 -8.04893500
H -19.71175100 -3.28355600 -11.47042300
H -12.88381000 4.42214700 -5.55983400
H -19.76269800 -1.63489600 -9.68273400
H -16.31247400 4.52758700 0.38491900
H -21.76759700 -0.02071900 -2.18866000
H -22.77183000 0.25354500 0.31510900
H -20.82113100 2.43083600 3.34734700
H -5.33137500 10.94050000 -17.05990300
H -2.47088300 12.05159200 -14.80168100
H -4.95779400 8.98851000 -18.50636400
H -11.59270300 3.16848100 -17.89371800
H -7.17842900 10.38482600 -11.35716000
H -10.59405500 0.42286700 -18.86845200
H -13.40060100 8.36001300 -8.41109400
H -13.63733000 5.55604100 -2.17041800
H -18.81821900 4.10794000 2.79326200
H -8.15612000 11.23262000 -17.39076600
H -10.98955800 9.06005200 -11.28121500
H -17.15825200 6.96310200 -7.78399000
H -20.03887400 0.81089400 -9.56832800
H -20.84254500 0.03919700 -5.24209900
H -16.42686500 4.33322600 -2.18700800
H -19.41553600 5.15259100 -3.43920700
H -12.70274600 8.83161900 -14.96833400
H -9.35229100 9.30030800 -12.92956700
H -12.10968100 5.67757700 -17.91888100
H -16.93461900 8.19179500 -11.83261300
H -20.69102200 5.84505100 -7.28278800
H -15.12970300 9.75586800 -15.41347200
H -17.04628800 6.33427700 -10.11195000
H -20.63367500 6.66771900 -10.32588800
O -23.01802300 1.28822600 5.35574700
H 20.50850800 -4.35090700 12.42995600
H 20.22700700 -7.24506500 15.33398700
H 16.83825000 -6.91522800 16.42734500
H 20.72558500 -3.31084400 14.54186400
H 16.25430300 0.21580800 18.58384400
H 19.46005200 4.60513100 16.03083000
H 17.44093000 3.09293400 20.14583400
H 17.77353700 8.39323000 19.35706400
H 14.92279600 8.25704800 17.16270100
H -15.39999200 -8.54498300 -20.39719100
H -15.52056800 -4.40968000 -19.84870500
H -20.02125300 -6.12646300 -17.18927600
H -17.38261500 -2.69684800 -19.57004300
H -19.25216300 -2.24756900 -14.80491700
H -16.45576000 1.12715800 -18.45855800
H -19.89163900 2.39880500 -14.70803700
H -20.25488700 7.82981100 -15.59949200
H -18.58232100 6.18300000 -12.35388900
H 12.67671800 -4.41825700 -10.13242700
H 15.13506000 -0.82945200 -12.87630300
H 12.66261200 -4.53045300 -16.55497300
H 10.54304100 -1.53743900 -10.88590900
H 14.68961200 3.31086100 -13.99487000
H 10.82177000 -0.17710600 -8.21671700
H 14.79609700 5.55941600 -12.75619900
H 7.89763800 0.94267300 -10.57848900
H 11.49626500 6.69980800 -14.74135700
H 12.05981500 8.43716400 -12.66376200
H 6.91621200 8.18098600 -8.33156100
H 11.17887200 11.68879700 -13.40780400
H 8.02338300 9.89453100 -6.43495200
H 4.72363000 11.37670600 -8.24664200
H 5.72120200 11.16651100 -12.81980300
H -10.37986900 -15.04387900 10.83942400
H -8.82517800 -9.49549400 5.32998300
H -11.36563200 -12.96619100 5.57429700
H -9.49410300 -11.88321700 11.81604400
H -6.63096100 -7.22711400 7.88762500
H -11.60266400 -10.98040400 10.62802500
H -11.15909400 -8.15289100 13.53875200
H -8.96609800 -1.17241900 9.24916200
H -12.45562800 -6.36880200 12.33758300
H -10.79146700 0.38807800 8.21250100
H -13.58362900 -2.72054700 14.30742400
H -8.66167700 2.19618400 10.97640500
H -12.63447800 -1.40131100 16.24080100
H -12.74951500 1.80155700 16.39908300
H -14.33828200 2.89017400 14.06958800
H -23.38047300 0.78338800 6.07107800
H 11.70543000 2.91620200 -4.64122400
H -2.13248800 -1.05005500 -11.20443400
H 7.64143700 5.54244700 -6.26957500
H -8.87327300 -2.89334100 6.41634400
C 6.16916100 11.41753700 -3.83817100
C 6.25930900 12.88074600 -4.26049200
H 7.07564300 11.10549600 -3.31695500
H 6.04189500 10.76756300 -4.70349000
H 5.32312200 11.25508400 -3.16800400
H 7.09677600 13.01665100 -4.94483900
C 6.41753000 13.80305100 -3.05789200
H 5.35665900 13.17523300 -4.80202400
H 7.31115500 13.51350200 -2.48944500
H 5.56091200 13.65983200 -2.39449800
N 6.41714900 15.22645100 -3.41932300
H 6.49886000 15.58705500 -5.69398900
H 6.18374800 15.78923100 -2.60841000
O 7.44837700 15.53017300 -5.50248700
C 7.58217200 15.79433700 -4.08371100
C 8.92744400 15.19792900 -3.69236000
C 7.56487000 17.30250100 -3.86631700
H 8.33237400 17.76479600 -4.48411300
H 7.75926200 17.54916400 -2.82105600
H 6.59292900 17.70534400 -4.15333000
H 8.96085000 14.12939800 -3.89500800
H 9.11428300 15.36408100 -2.63079000
H 9.71906900 15.67649900 -4.26814900
O -7.93336400 -26.76237700 10.99322800
H -8.61161800 -26.08772100 10.95617000
H -7.88733400 -27.11635200 10.10525200
O -21.57637300 0.30581000 20.12942500
H -20.94534500 0.59759500 19.47122600
H -21.84836100 -0.56576500 19.84255200
O -2.47086900 6.89608700 24.32638400
H -1.80131800 7.56613700 24.18747200
H -3.16035100 7.10023400 23.69483400
O 7.55881800 28.77803700 -3.84487800
H 6.60441800 28.72221400 -3.89555200
H 7.86663000 28.56210600 -4.72495900
O 15.53765000 -25.56365500 -2.25852100
H 15.62683300 -25.40834200 -3.19899200
H 14.63217100 -25.84976300 -2.13950000
O 9.26005900 -10.29448000 -13.85541500
H 9.25927500 -10.33085100 -14.81209600
H 9.82265000 -9.55193600 -13.63624400
O -10.55916500 20.31104100 -14.10538700
H -10.09128000 19.85526900 -14.80532800
H -10.99316600 21.04726600 -14.53612100
O 4.66717300 4.67795100 -27.66770800
H 4.81006800 4.30043300 -26.79959400
H 3.71776800 4.77141200 -27.74393800
O -2.50283600 -15.94531000 19.44915000
H -2.55161600 -15.92699300 18.49319700
H -3.31698300 -16.36217900 19.73075700
O 13.87514300 15.07892200 -13.98865300
H 14.25023700 14.55315300 -13.28194700
H 13.74601500 15.94794500 -13.60912400
O 0.53191700 -9.69090600 3.79391700
H 1.33027500 -9.74805200 3.26863500
H 0.40574200 -8.75545500 3.95180400
O 1.90760400 15.33173600 7.90499400
H 0.95275500 15.26296400 7.89526500
H 2.09002800 16.19417100 8.27761300
O -6.13285000 -24.48042300 10.55037500
H -5.67095400 -23.90375800 11.15920300
H -7.00911800 -24.58169200 10.92160900
O -14.57970600 -20.25881500 0.36424600
H -15.53611700 -20.24889500 0.40598200
H -14.37061600 -20.11878000 -0.55911100
O 17.04293000 -19.44223800 -0.07378000
H 16.89129000 -19.19267000 0.83796700
H 16.70895600 -18.70891700 -0.59013200
O 1.45871900 1.38782500 9.49347700
H 1.04690800 1.75366000 8.71044600
H 1.84386500 0.55989100 9.20693700
O -9.67381500 8.16702500 26.92906200
H -8.90245500 8.05274100 27.48449400
H -9.59850900 7.48883400 26.25801600
O 10.87759400 -17.86924800 11.18957400
H 10.93811700 -17.39092700 10.36246600
H 11.66700600 -17.62769400 11.67372100
O 0.65945200 14.75965800 11.99033700
H 0.59319400 15.71293000 12.04902800
H 0.43633800 14.44155400 12.86494900
O -6.99913500 -18.54298000 -17.94313200
H -6.56292900 -18.19682900 -18.72189100
H -7.27327700 -19.42735600 -18.18529300
O 10.04576800 10.75603700 15.07387900
H 9.72706900 11.65849700 15.05024300
H 9.89059000 10.46198600 15.97130300
O 11.32036000 -22.52729600 -11.58089300
H 10.68344500 -23.17974400 -11.28898200
H 11.86607000 -22.35352000 -10.81413400
O -3.62298900 21.42652000 -6.71612000
H -2.84524800 21.44459200 -7.27411200
H -4.29512100 20.99340600 -7.24201700
O 18.38190000 -10.47005800 -20.43719300
H 18.57411600 -11.38936500 -20.62290700
H 18.77713200 -9.98340400 -21.16029400
O 13.97883100 -19.38913800 -13.87175500
H 13.31946700 -19.67177200 -14.50572500
H 14.50916100 -18.74277200 -14.33745700
O -15.46302600 -12.43122400 13.20320400
H -14.85160300 -12.96934600 13.70634300
H -15.24745300 -11.52823800 13.43571500
O 1.07739900 3.93441700 25.36344000
H 1.32288800 3.19246200 24.81044800
H 1.72551700 4.61181200 25.17109600
O -5.07449700 22.70839000 3.24148000
H -4.74575600 23.36972300 2.63227500
H -5.14717500 21.90770800 2.72230500
O -1.28794400 0.23486900 6.22464800
H -1.60367000 0.76755000 6.95480600
H -1.54609300 -0.66077300 6.44167300
O 2.89126100 19.59274700 19.54734000
H 2.14231200 19.31140500 20.07315800
H 3.13963500 20.44459200 19.90593200
O 12.42000500 -14.98847300 -2.21498900
H 11.59241500 -14.83701100 -2.67184400
H 12.57570200 -15.92976900 -2.29006600
O 26.81249400 -8.02286700 8.61273000
H 27.13897300 -8.53665000 9.35164900
H 25.98302000 -7.65349500 8.91514300
O 2.96677300 -16.06266200 10.35337600
H 2.46343600 -16.62154700 9.76104000
H 2.31279300 -15.53567100 10.81218700
O 5.12046900 25.43351000 6.49379600
H 4.80493300 26.09209700 7.11287700
H 5.24409000 24.64138300 7.01645200
O -0.92496500 29.79086000 -1.35618100
H -1.65874000 29.94477300 -0.76082600
H -1.30053900 29.30887900 -2.09276500
O -6.29679500 -19.63612000 -9.46586100
H -6.42740000 -20.58454100 -9.46716300
H -5.85632900 -19.44789200 -8.63732200
O -19.14907700 9.72640800 -3.87374700
H -19.29306800 10.40971200 -3.21882500
H -19.67347000 8.98332700 -3.57582300
O -4.77107700 20.81801500 21.06822900
H -5.70695500 20.78269600 20.86961700
H -4.63488200 20.14939100 21.73928000
O 18.05234500 17.59165600 -12.59930700
H 18.37659400 16.78223800 -12.20400200
H 18.48944400 18.29442800 -12.11871100
O -14.07774700 -12.69172300 -7.42172800
H -15.00391200 -12.73142000 -7.66090400
H -13.61349300 -12.56532600 -8.24901800
O -4.85755200 -1.55646700 1.95144000
H -5.60250600 -0.96329700 2.05020600
H -4.51181200 -1.37648000 1.07737700
O -15.52831900 -18.01441700 -7.96447500
H -16.32991200 -18.07496900 -7.44452900
H -14.88316500 -18.53527900 -7.48656700
O -19.07732100 9.21208600 10.81023900
H -18.56405200 8.82676700 10.09985400
H -19.36500600 8.46844500 11.33953400
O -5.53153700 -12.20193200 -6.70796900
H -6.19022700 -12.09823400 -7.39494400
H -4.69723100 -12.26611100 -7.17243800
O -2.91486600 10.19526500 19.92854200
H -2.23360900 9.85639200 19.34749400
H -2.44458300 10.68908500 20.60002800
O -9.88746900 13.61656700 13.15973500
H -10.48541600 14.02872200 12.53591600
H -9.25836300 14.30046900 13.38869000
O 6.18978600 -28.30966200 -6.95991200
H 6.09397400 -27.40212800 -6.67049000
H 6.19791200 -28.26522100 -7.91588100
O 5.84354800 5.00236100 -1.31601800
H 6.05509500 5.74426000 -1.88293600
H 5.93771200 4.23004200 -1.87330900
O -18.96786000 -19.13036000 -0.62416900
H -18.28591400 -19.46881600 -0.04368700
H -19.29731700 -18.34495900 -0.18768400
O -1.35183000 -11.77791700 -17.87849700
H -0.77222500 -12.20472800 -18.50972700
H -2.19025000 -12.23096000 -17.96636200
O -16.11883600 -10.47474800 18.65697300
H -15.28059900 -10.01253000 18.64040900
H -15.96485400 -11.24754900 19.20009900
O 15.81397200 19.04796600 -8.51224300
H 16.59881300 19.07786300 -9.05968600
H 15.51440200 18.14018500 -8.55814700
O 20.06109900 17.34569100 -10.90631500
H 20.81295000 17.75592200 -11.33409000
H 20.38206300 17.07679600 -10.04573700
O 3.51623400 17.99447700 -15.31437900
H 4.16288900 17.85823000 -14.62167700
H 2.87364400 18.59591800 -14.93852700
O -17.26923700 6.82604600 10.88900000
H -17.06170200 6.10770800 11.48689900
H -17.23590900 7.61537100 11.42915900
O -7.57817300 8.99610600 15.42922900
H -6.99862500 8.48289300 14.86593700
H -8.27684900 9.30305800 14.85169100
O -13.26479400 18.69645400 18.44506700
H -13.52877300 17.88054500 18.01942700
H -13.95731400 19.32193500 18.23268000
O -13.61883800 3.13703500 18.95651000
H -13.07938000 3.13729700 19.74742500
H -14.49008400 3.40199900 19.25086100
O 7.45020800 -28.77123100 -2.64710100
H 7.34422500 -27.92481500 -2.21246400
H 6.57160000 -29.15001200 -2.66927200
O 23.21934700 2.79572000 13.41135700
H 23.06546600 2.04568500 12.83661400
H 22.41646500 3.31425900 13.36220700
O 10.99065500 -5.82226800 -17.16757800
H 11.70771900 -6.44689600 -17.05702800
H 10.33570600 -6.28669500 -17.68841000
O 18.91708900 -10.49517500 -15.55246500
H 18.58983500 -10.41461300 -16.44855500
H 19.67953900 -9.91799400 -15.51440000
O 9.69454600 -6.84878400 6.68364500
H 10.52274900 -6.54814800 7.05816000
H 9.13191300 -7.02630100 7.43720200
O 7.91903200 0.14738900 -24.02803400
H 8.38024100 -0.16373500 -24.80716800
H 7.24873900 0.74491400 -24.35907300
O 8.04932500 -19.16127400 -18.55442300
H 7.78066100 -19.64262600 -19.33716400
H 8.04362700 -19.80984000 -17.85068500
O -18.51855700 4.84519700 -22.99893100
H -19.21524900 5.04378800 -22.37303600
H -18.12992500 5.69287600 -23.21415800
O 16.65097200 -19.71795300 14.39038500
H 16.40727400 -19.92331500 15.29315800
H 17.59440900 -19.55965600 14.41840700
O 5.06895000 20.34860900 7.78857200
H 4.43716700 20.74715400 8.38738200
H 5.51413600 19.67919600 8.30781400
O 6.82985100 16.12853500 -24.23369600
H 6.42480300 15.41080100 -24.72088800
H 6.71802700 15.89638500 -23.31200300
O -10.41166700 -24.32364800 13.60958200
H -9.78195600 -23.60465400 13.55414300
H -11.11528000 -23.99412200 14.16838300
O -8.04349500 27.42989100 -7.82316800
H -7.61812500 26.70734700 -7.36105100
H -7.33317700 27.89135100 -8.26861300
O 28.26611800 -6.85611100 -5.61448700
H 27.36963600 -6.53524800 -5.71413700
H 28.34953000 -7.56133600 -6.25606000
O 15.38034000 20.20388900 -2.93106400
H 15.00346400 21.01657700 -2.59333100
H 15.17993700 19.54358900 -2.26791900
O 9.06858100 -14.54167100 24.60223100
H 9.55289800 -13.71584000 24.60044600
H 9.45391900 -15.05632300 23.89331300
O 9.85870800 22.14282000 0.61804300
H 10.17701200 21.24041400 0.64816600
H 9.06627700 22.14399100 1.15467200
O 9.94034900 1.50611800 2.30591700
H 9.55752900 1.01584800 3.03368400
H 10.63032300 2.03837300 2.70159100
O -6.87998800 23.19108500 13.45136700
H -7.36461800 23.25121700 12.62791100
H -6.07355700 22.72536300 13.23071100
O -4.61798400 6.96880200 10.36258300
H -5.28911300 7.04242800 9.68381300
H -3.80127700 7.22027600 9.93169200
O 8.53185900 -19.31282400 19.90504400
H 8.18262600 -18.51127000 20.29505700
H 8.68458500 -19.09482200 18.98576900
O -9.22592900 -15.48062700 -0.00980000
H -9.28845800 -16.14587800 -0.69543300
H -8.69563200 -14.78109200 -0.39105300
O -5.79927400 -12.46230300 1.83790000
H -5.95134100 -12.16535200 2.73526100
H -6.62719400 -12.30951600 1.38279400
O -23.56183900 4.95104300 -5.19055800
H -23.80553800 4.88828100 -6.11426500
H -24.35459200 4.71590100 -4.70872100
O 5.82381000 -18.20280500 -16.44422900
H 6.16598000 -17.42494300 -16.00330700
H 6.50020400 -18.44729700 -17.07560200
O 14.88468300 20.91887900 -5.34314400
H 15.36052200 21.04913000 -6.16361500
H 14.52865000 21.77975700 -5.12395100
O -11.37566800 -12.97221400 17.69434800
H -11.07151900 -12.45542100 16.94803700
H -11.81545800 -12.34452200 18.26750100
O -10.75595100 2.96748600 -22.37454900
H -11.26981000 3.31662500 -23.10298100
H -11.26775200 2.23074400 -22.04110200
O -20.73661700 5.39543900 7.97182600
H -19.98765500 5.84676900 7.58205600
H -21.43993000 6.04443500 7.98024500
O -4.47468200 -9.44575700 -16.09826200
H -3.71061600 -8.87045400 -16.14060000
H -4.93362200 -9.18955000 -15.29848100
O -3.80042700 13.33925700 26.60133300
H -3.00293000 13.84510300 26.44423300
H -3.50404800 12.53608100 27.02910100
O 7.07092700 8.38306800 0.84383500
H 6.29233800 8.51242700 1.38570900
H 7.58012500 9.18693500 0.94596900
O 2.13122700 -8.04323200 -22.43073000
H 1.29916200 -8.49225100 -22.58109900
H 2.80342700 -8.67778800 -22.67852900
O 3.90802800 11.55469700 21.25875100
H 3.56657600 10.73652400 20.89741200
H 3.29766300 12.22988200 20.96295300
O 27.97396600 6.78941700 5.06138400
H 27.45351500 6.60919100 4.27830600
H 28.02931600 7.74372400 5.10777500
O -5.43998500 8.45633400 25.49466300
H -6.02014100 8.13553200 26.18536300
H -4.72127200 7.82522800 25.46191400
O 11.59027400 18.02100600 -6.57221300
H 11.80663900 18.93189100 -6.37212300
H 11.31378000 17.64302100 -5.73759000
O 4.04721400 -18.54643700 -15.18921100
H 3.09006100 -18.53677800 -15.17113400
H 4.28254500 -19.45843200 -15.35892200
O -1.26348600 -27.82233100 -11.15098500
H -2.01720000 -27.26153000 -11.33531800
H -1.40708200 -28.14589300 -10.26182500
O -6.16053300 5.33774800 -0.85493500
H -6.31790800 6.28129500 -0.89385500
H -5.98024900 5.15453000 0.06693500
O 26.36591000 -0.81980700 8.42561300
H 25.88246900 -1.53806300 8.83421400
H 27.00305000 -1.24493000 7.85181800
O -1.81243800 15.02645500 -1.70675500
H -2.54674900 15.48189500 -2.11897100
H -1.22030800 14.80906100 -2.42650400
O -4.75673100 -7.12952400 -23.94686500
H -5.39959400 -7.53808400 -24.52683700
H -5.20904600 -7.02554200 -23.10989600
O -3.57233700 13.70420700 -13.81856100
H -4.12705000 14.47150400 -13.67674800
H -2.68708600 14.05372000 -13.91900800
O 14.65248500 -8.75866600 6.51267700
H 15.59038500 -8.94592200 6.46978700
H 14.31501000 -9.33889200 7.19485400
O -25.01254500 15.48248000 -3.76355400
H -25.75985500 14.89373200 -3.87062300
H -25.20805100 15.99021800 -2.97621900
O -3.23910100 10.75937700 -5.23855100
H -3.64248800 11.54114800 -4.86082800
H -2.36947200 10.71302200 -4.84167100
O 10.13673500 19.50695800 17.66252300
H 10.83604200 18.85804200 17.58227200
H 9.46532700 19.22566400 17.04123300
O -1.15234100 20.85698600 14.10647000
H -0.63773700 21.66388000 14.13230500
H -0.56632500 20.20147400 13.72857300
O 15.27604800 -19.89523800 4.16035800
H 14.74082900 -20.25467300 4.86810800
H 15.39444900 -18.97217600 4.38363800
O 2.65126500 10.41386700 13.31880700
H 2.86289400 9.97869000 12.49273500
H 3.06078400 9.87440200 13.99496400
O -7.04433600 13.32891900 -12.47891400
H -7.07304100 12.87986000 -13.32394900
H -6.11438800 13.47848800 -12.30937700
O -27.31363200 -3.78446300 -4.59635800
H -28.08089600 -3.61484500 -5.14325800
H -26.72271700 -4.29457700 -5.15000100
O -15.64166900 -1.46612500 17.15707100
H -15.68727600 -1.32516100 18.10291000
H -15.19839400 -2.30793000 17.05320100
O -7.75843000 7.89518100 -27.80743500
H -7.70213400 7.78749500 -26.85780600
H -6.85038900 7.94943800 -28.10481600
O 25.50948200 -4.11025900 -15.24506200
H 24.99683400 -4.43491000 -15.98557200
H 25.56413300 -3.16401200 -15.37752800
O -8.64008200 -7.29139800 24.21570800
H -8.89310400 -7.07902600 23.31713100
H -9.42499800 -7.67021500 24.61108300
O 1.03893900 19.11983600 18.18288100
H 0.45059500 18.37143500 18.08134800
H 1.85251700 18.85529500 17.75390000
O 2.43638000 -21.30188700 -14.75664000
H 2.47127400 -20.46012900 -14.30190100
H 2.90510200 -21.15892200 -15.57869700
O -29.62818700 -2.25015400 -4.13864700
H -29.31341700 -2.61922500 -3.31325600
H -29.70820100 -1.31056500 -3.97528700
O 10.70388000 18.02657100 -9.97355200
H 10.29427300 17.16930000 -9.85577600
H 10.11139900 18.50683900 -10.55167500
O -17.77070700 15.85932700 15.62390800
H -17.40207100 15.33085300 16.33199300
H -17.85936700 16.73854300 15.99138000
O 4.39576400 -12.44859700 -21.46871000
H 3.53963500 -12.34833800 -21.05211200
H 4.92048000 -11.72129000 -21.13462100
O 11.90907600 25.58516500 -8.27553700
H 12.57059500 25.72600800 -8.95311900
H 11.77993100 26.44385200 -7.87317500
O 2.50559400 -1.24908400 -0.98745600
H 2.40786500 -0.42934700 -0.50264300
H 2.21191100 -1.93070600 -0.38325600
O -24.89437600 -11.61011100 -5.31524800
H -25.35230800 -10.76937200 -5.31104600
H -25.16068800 -12.04126600 -4.50339900
O 13.48495600 15.68290600 -21.44562400
H 13.23671900 15.18958800 -22.22765900
H 12.94686100 16.47394800 -21.47060400
O 23.42048300 9.51675400 -9.92840000
H 24.24523600 9.26607300 -10.34493700
H 23.02354800 8.69204500 -9.64873500
O -22.98831800 -11.90371200 -8.50151100
H -23.78425200 -11.55523600 -8.09949800
H -23.25939100 -12.72064900 -8.91990100
O -10.49891100 20.47037400 14.65926200
H -9.84720900 20.14049700 15.27815500
H -10.88319400 21.23474400 15.08819300
O 0.20971600 24.72617700 7.43186300
H -0.47454700 25.19571200 6.95449300
H 1.01371800 25.21492200 7.25686100
O 16.03432900 25.05270200 3.91680600
H 15.77354100 24.15250800 3.72135400
H 15.31710600 25.41032600 4.43988700
O -15.37340300 20.55409600 -3.19490100
H -15.28165200 20.57294600 -2.24212100
H -14.58435800 20.11436100 -3.51106200
O 25.22998500 6.99057000 -13.16848500
H 24.94785700 6.07633600 -13.20228900
H 26.15810000 6.95499600 -12.93771900
O 4.71657900 -8.56575900 -23.92499700
H 4.45959200 -7.65228900 -24.05184900
H 5.65397700 -8.53518100 -23.73456000
O 24.69070800 12.89380300 -11.07216500
H 24.77311400 12.13371900 -11.64839800
H 25.17900000 12.66033800 -10.28287300
O -21.93089700 3.34499100 20.19599200
H -21.29124100 3.71169000 20.80667500
H -21.54800900 3.47500300 19.32857600
O -2.32867200 18.06470800 -16.49069100
H -3.20335400 18.29933400 -16.80124700
H -1.73354100 18.36208700 -17.17866000
O 18.93755200 -10.72998100 3.35934500
H 18.41321900 -11.19658900 2.70825900
H 19.02196700 -9.83998400 3.01773700
O 7.66342700 -8.01383800 -22.56475900
H 7.76973000 -8.74684800 -23.17135400
H 6.96239800 -8.28300200 -21.97144100
O -10.12558900 13.84336000 -19.23759900
H -9.65648800 13.15740600 -18.76223200
H -9.56165700 14.06038700 -19.97975600
O 11.60984500 24.66799700 -5.40566100
H 11.10805900 25.00896900 -6.14627600
H 12.42799100 24.34937500 -5.78649400
O -1.68545300 10.15170100 13.78760600
H -2.58930500 9.83694000 13.76443100
H -1.75625300 11.10507000 13.83224700
O 10.47119600 -20.96752000 -12.87749100
H 9.79666900 -20.50098900 -12.38360500
H 10.44668700 -20.58355500 -13.75378300
O -4.98853500 -9.60180000 20.42534900
H -4.64278800 -10.16854400 21.11514800
H -5.13462400 -8.75637700 20.84941900
O -20.14728300 -12.88243400 14.77101600
H -19.93106400 -12.97125700 13.84261900
H -20.60996200 -12.04741700 14.83878500
O 7.88396900 -1.22599500 27.75984800
H 7.40617600 -1.75237900 27.11860200
H 8.13663600 -0.43178100 27.28942100
O 7.17339600 14.51757400 8.96204500
H 7.94270100 13.99759000 9.19517200
H 6.44147900 14.08988500 9.40622600
O -5.36808100 21.22036600 -16.26146600
H -4.63743900 21.02028200 -16.84686400
H -6.14276500 20.87613700 -16.70563700
O -0.03780700 -18.09018100 -18.07316400
H -0.61817800 -18.10997600 -17.31202100
H 0.59514400 -18.79155700 -17.92031700
O 10.68718900 6.68053700 26.90169300
H 10.81741900 5.85214800 27.36361700
H 9.74605400 6.72521100 26.73380200
O 23.39125300 17.33721300 0.34216400
H 23.97633400 18.03143200 0.03835200
H 23.08840900 16.90216100 -0.45466200
O 9.38195000 4.77105500 4.31066000
H 8.47619100 4.63954300 4.59149200
H 9.89079500 4.79937200 5.12071700
O -15.27939600 13.05121000 22.27527400
H -15.30293000 13.86179500 21.76639300
H -16.05969600 12.56694200 22.00595400
O 4.32884800 -17.10137100 -17.62208500
H 5.09378900 -16.53150000 -17.70378500
H 4.01877600 -16.97277400 -16.72585100
O -6.34507200 26.69827600 -9.82903400
H -6.35601800 27.37109600 -10.51003000
H -5.91502200 25.94448500 -10.23248500
O -1.25623000 -20.85633300 -10.04608000
H -0.78339100 -20.92884800 -10.87537200
H -0.92010100 -20.05845100 -9.63825900
O -21.98274100 -0.26266000 17.00742000
H -21.24055400 0.25612200 17.31820100
H -22.00720300 -1.02836400 17.58101900
O 0.37044200 25.89900100 11.80895200
H 0.66546200 25.00417200 11.97867500
H 0.20355000 26.27303200 12.67391700
O 10.92357200 4.64843500 0.82579800
H 11.53310700 4.88387100 1.52551100
H 10.11006100 4.41678300 1.27352100
O 5.64160300 19.75436500 0.50397100
H 5.48340800 18.93243400 0.03925100
H 5.35693800 20.43947600 -0.10060000
O -14.00844500 11.16001700 11.20603100
H -14.66205600 11.28363600 10.51750200
H -13.70681600 12.04211400 11.42246400
O -1.47511800 1.45960900 -1.08775600
H -1.30165300 0.85235500 -1.80728100
H -1.63431900 2.30397800 -1.50919700
O -12.43269900 8.73771700 16.73722200
H -12.25221000 9.60010900 17.11174400
H -13.18778300 8.86964200 16.16419400
O 5.41384200 -23.05609200 12.49303600
H 6.33348500 -22.83202600 12.63661100
H 5.34117100 -23.21295200 11.55174300
O 5.43422600 -24.48638300 -11.07931400
H 4.62329800 -23.98048600 -11.02432100
H 6.12751500 -23.83348800 -11.17416000
O 21.55050200 -10.46559700 17.04148700
H 21.28150800 -10.84029500 16.20255600
H 20.84134000 -10.68005200 17.64730600
O 18.46219200 -15.64385800 -11.94071500
H 19.08563500 -15.06330800 -11.50386100
H 18.08274300 -15.11620000 -12.64321900
O 26.11853100 -13.07503200 6.84670500
H 26.51586100 -12.20725700 6.92192300
H 26.22128200 -13.31553800 5.92609900
O -9.04796300 -10.68142200 -26.04173400
H -8.44486200 -11.27870000 -26.48455500
H -9.03853000 -9.88334600 -26.56984700
O -3.64539000 -12.47405900 -1.35725600
H -4.11953700 -12.71922600 -0.56249900
H -2.90132300 -11.95546600 -1.05173600
O -10.15226100 18.64901700 -9.86932500
H -9.66998000 17.87710200 -9.57248600
H -10.35864500 19.13436200 -9.07072500
O -0.89385800 23.32003500 18.68513900
H -1.21541300 22.70872300 18.02221900
H -0.81881700 22.80060100 19.48543500
O 9.01515400 11.16877500 13.02931200
H 8.12943900 10.80713200 12.99344400
H 9.59212000 10.43085100 12.83311200
O 23.33134400 -11.30227100 14.33837900
H 22.77597100 -10.52486300 14.27705200
H 23.08113400 -11.72108800 15.16172800
O 5.90619100 23.01605600 8.33798000
H 4.95881000 22.88111700 8.30930800
H 6.04489100 23.65009900 9.04130700
O 20.76835800 2.41060500 -11.93702300
H 20.72851400 3.33956500 -12.16507300
H 20.75530100 2.38965100 -10.98030600
O -4.83566100 -18.26511800 1.85805600
H -5.16287000 -17.61928000 1.23164600
H -4.02430300 -18.59518800 1.47247800
O 5.57509900 -6.63909800 -1.00347600
H 6.34270300 -6.54264000 -1.56742800
H 4.93668000 -6.01319200 -1.34491300
O 6.48670800 -11.19001800 21.34410000
H 5.93754600 -10.49326900 21.70399400
H 6.83146500 -11.65293500 22.10749200
O -5.80311700 -9.21168400 -12.46527900
H -6.62207100 -8.88343100 -12.83693200
H -5.13044500 -8.98098600 -13.10575400
O 16.70065400 20.88921800 -13.02196200
H 17.41532400 20.44960800 -12.56093000
H 16.52986900 21.68272600 -12.51491700
O 9.53703300 -0.00358300 25.64769500
H 9.37202900 0.87426800 25.99224200
H 9.50536100 0.09381200 24.69615600
O -3.15367700 -7.67633100 -6.49452700
H -2.30141400 -7.31424900 -6.73764700
H -3.22924600 -7.52127000 -5.55316500
O -7.87062900 -25.56462300 8.54628500
H -7.94643800 -25.72541600 7.60556100
H -8.77119400 -25.46142500 8.85328500
O 5.44299300 13.24640900 0.74780500
H 5.60760100 13.12241700 -0.18712400
H 6.21785600 12.89335900 1.18468100
O -6.71273900 15.24414300 18.66229700
H -6.83762000 14.42706500 18.17923300
H -5.82419600 15.52638000 18.44608000
O 1.75718400 11.18089500 6.21452100
H 2.16300300 11.77003000 5.57828800
H 2.36124000 10.44228300 6.28858300
O 9.78797400 8.94212000 -20.04812700
H 10.69076800 8.62604100 -20.00789500
H 9.74677600 9.65566900 -19.41167700
O 10.80061300 -14.22613500 6.16745800
H 11.35444400 -15.00342300 6.24266100
H 11.41105800 -13.49556600 6.06977100
O -11.35634800 12.20436400 -3.24260000
H -10.50271800 11.77408900 -3.19023900
H -11.52806100 12.52263000 -2.35651900
O -0.00577900 -13.80810700 -16.00442200
H 0.18076100 -14.72523900 -15.80284400
H -0.03443300 -13.76543000 -16.96007700
O -15.68738000 14.68950200 17.55030400
H -15.33293000 15.11812600 18.32954000
H -16.36490300 14.09890200 17.87904700
O -19.05843600 -23.11419500 1.58662800
H -18.80796200 -23.35363300 0.69416300
H -18.43416800 -23.57104400 2.15009600
O 26.71569000 -4.48456100 -7.02381300
H 26.92259100 -4.41465700 -6.09168200
H 26.38056500 -3.62215700 -7.26849200
O -8.76614300 -11.20598800 19.09322500
H -8.21976000 -10.84733900 18.39365500
H -8.33626200 -12.02165100 19.34976600
O -12.36080500 18.97249500 0.54826600
H -12.11992500 19.75319000 1.04732000
H -11.53064600 18.61003300 0.23943900
O 1.82019600 22.73571800 -1.72234600
H 1.75870400 22.01499800 -2.34951700
H 1.36387400 23.46641300 -2.13920500
O -13.32333800 5.30728200 6.44520100
H -13.46297000 5.69742300 5.58215100
H -13.95988700 5.73619200 7.01682900
O 5.37153500 -12.33401000 3.89110800
H 5.71014800 -13.22906300 3.91908100
H 5.72946400 -11.90931300 4.67049000
O -13.45407900 -2.03671300 18.36734800
H -12.52651300 -1.80873200 18.43221300
H -13.46737200 -2.98384200 18.23064600
O 0.90440400 -12.81998700 -8.94455000
H 1.21155700 -12.73412200 -9.84723800
H 0.33847500 -12.06143600 -8.80227500
O 2.52447500 12.37715800 12.12185100
H 2.21074400 13.20551300 12.48511900
H 1.73327800 11.86779400 11.94728500
O 2.01694500 -12.60462500 -23.93369700
H 1.68897700 -12.82560700 -23.06182200
H 2.59952600 -13.32638300 -24.16945600
O -17.13839700 5.99841600 14.51247400
H -17.23384300 6.91743100 14.76319700
H -16.71191300 6.01836300 13.65595100
O 7.52687900 -21.16643700 -10.45806000
H 8.19812200 -20.63075100 -10.88118500
H 7.39638100 -21.91009700 -11.04615600
O -12.19583400 -11.89711200 -24.69266700
H -12.53675200 -12.52541200 -24.05581800
H -11.46794200 -11.46352700 -24.24758900
O -11.16618500 11.50424300 -21.45663500
H -10.68192300 10.71369500 -21.21770700
H -11.94900400 11.18838000 -21.90756800
O 5.81336200 -5.46715100 -11.84125900
H 6.34199800 -5.12250000 -11.12131300
H 4.97825700 -5.70939300 -11.44146500
O 9.88678300 -18.98636700 16.23121000
H 10.65800300 -19.11868400 16.78282000
H 9.14748000 -18.97062000 16.83874600
O -18.05773200 -9.56392700 19.51379700
H -18.56269900 -10.07337300 18.87973500
H -17.61158300 -8.89488100 18.99490800
O 3.07204200 -18.04570000 18.94563100
H 3.43218500 -17.16352000 19.03846200
H 3.66397600 -18.60861900 19.44428200
O -7.48473200 -3.23137400 28.07830600
H -7.22849600 -2.96591700 28.96173000
H -6.69700100 -3.11686600 27.54700100
O -6.31489200 -12.79032600 -0.74064700
H -7.14983300 -13.25855400 -0.75474000
H -6.02848200 -12.76714200 -1.65352700
O -19.40937900 1.48283000 -21.67547900
H -19.75075100 1.06591000 -20.88414700
H -18.56143700 1.84471900 -21.41867400
O 16.57041300 16.98798100 -10.96693300
H 16.65290800 17.94139800 -10.93949600
H 16.14122500 16.75273900 -10.14451200
O 17.73741200 21.57555800 3.38805100
H 17.00517800 21.66778700 2.77822300
H 17.55690200 20.76973100 3.87176200
O -4.94563500 -12.84908600 20.69227400
H -5.05944900 -13.57638600 21.30435600
H -4.22979300 -12.32861800 21.05641500
O 2.46897500 -8.97062900 -5.84376100
H 1.63494200 -8.97362300 -6.31380500
H 2.68575600 -8.04545700 -5.72983100
O -8.37572900 5.73880700 -0.30479100
H -8.43299900 4.94387100 0.22564300
H -8.15020600 6.43350700 0.31363300
O -4.49671700 -5.27402400 -25.27431800
H -5.26754600 -5.13565500 -24.72364700
H -3.80055300 -4.76607600 -24.85807300
O -25.11298200 0.27450700 -13.88510200
H -24.34118100 0.76704300 -13.60529400
H -24.97155300 0.09994800 -14.81539500
O 3.98781800 -4.19237800 -27.94972500
H 3.96799500 -4.43071500 -28.87674500
H 3.15092300 -3.75724900 -27.78790800
O -20.01661900 17.22300800 7.21998300
H -20.48395000 16.50204900 6.79763100
H -19.51559800 16.81392400 7.92535300
O 9.35312200 16.90880200 -0.49659900
H 9.38963000 17.29910700 -1.37003500
H 8.80649500 16.12957100 -0.59616900
O 5.64884700 17.07413500 -8.77389200
H 5.91582200 17.40753600 -9.63070600
H 5.60813100 16.12382800 -8.87960700
O -1.40899800 4.29760700 1.09751500
H -0.84740600 4.11745800 0.34337800
H -2.20023600 4.69008100 0.72897300
O 14.28029200 -2.54127300 25.77281000
H 13.91740400 -2.03335600 26.49868500
H 14.36580300 -3.43202500 26.11217000
O -19.52024500 18.31711400 -11.32828300
H -19.65584000 17.37032800 -11.28617700
H -20.31880500 18.66427300 -11.72539700
O -5.56577100 1.49718500 -24.82840600
H -5.78892600 0.58066200 -24.66485000
H -6.29723900 1.99829000 -24.46817600
O 12.72523900 16.37007100 21.68371800
H 11.88582900 16.49890900 21.24173000
H 13.36975400 16.31037100 20.97876800
O 8.14119600 -13.15499900 -21.89438000
H 8.77324000 -13.26358100 -22.60522000
H 7.38297300 -13.67750200 -22.15515700
O 9.32713800 -15.86018600 -23.31869100
H 8.51459700 -15.78841700 -22.81750400
H 9.76228200 -16.64006800 -22.97467000
O -4.63240500 -9.59852300 -24.80635400
H -3.77252500 -9.17891300 -24.83944100
H -4.56727300 -10.34413300 -25.40279500
O -3.35392200 21.64655300 4.11242100
H -2.96867900 22.46924600 3.81021900
H -2.83404700 20.96095200 3.69337700
O -8.09233900 -19.85905100 -10.71699900
H -8.02096400 -19.40552700 -11.55710900
H -8.86680700 -19.48403700 -10.29809500
O 14.70322300 -23.80587800 6.31430400
H 15.20923300 -24.36980600 5.72906800
H 13.93083100 -23.55366200 5.80862200
O 23.87221500 11.43327700 6.19083100
H 24.21000900 12.32451900 6.28108300
H 24.31939200 10.92892900 6.87023000
O -0.74486800 12.15018100 23.54562800
H -0.72512700 13.04093300 23.89596100
H 0.14656300 11.98473200 23.23920700
O -23.53701300 9.58248600 -2.16679000
H -23.49762300 8.73972200 -2.61929200
H -22.99201000 9.47117800 -1.38801000
O -12.61131600 -19.81452600 -7.88556600
H -12.83084400 -19.24929300 -7.14470100
H -13.44485800 -19.98167900 -8.32509300
O 13.38797900 17.73779300 -4.13619900
H 14.25743100 18.09579800 -3.95607000
H 13.40356800 17.50452100 -5.06423900
O -0.52227000 19.87431700 -21.24242900
H -1.27466400 19.28297900 -21.21440600
H -0.46709300 20.16193200 -22.15355500
O 4.34830600 -1.77741300 -26.88654900
H 3.79933300 -1.09795700 -27.27838000
H 4.82869300 -2.16120200 -27.61993200
O -10.95233500 -7.06577400 -3.88099900
H -11.83098600 -6.84364300 -4.18953300
H -11.08373900 -7.76698200 -3.24306800
O -10.22706600 -24.00630200 6.47543200
H -10.13997900 -24.01307500 5.52205200
H -11.12539600 -23.72026400 6.64006100
O 4.05807900 0.89082000 24.87046400
H 4.18047200 0.81610100 25.81703600
H 4.33360400 1.78156300 24.65464100
O 12.01285800 -9.89919900 1.31432100
H 12.42205500 -9.57477000 2.11673400
H 11.55330000 -10.69694700 1.57570400
O -20.13920800 8.19829500 4.86977700
H -20.03913600 8.99800100 4.35303900
H -20.30058900 7.50713600 4.22777100
O -17.53008700 -14.63487600 -12.13112800
H -17.25196300 -13.88494500 -11.60499800
H -17.56849600 -15.36777000 -11.51687400
O -21.86428000 17.97475600 8.15535100
H -21.42294900 17.52830300 8.87817100
H -22.78067700 17.70683900 8.22133900
O 3.73775700 -25.94028500 14.59909200
H 2.78638000 -26.01857900 14.67198900
H 3.95773600 -26.35920600 13.76720800
O -6.99612500 -10.28270500 2.15460400
H -7.88067100 -10.61413000 1.99873000
H -6.69922100 -9.95963300 1.30408000
O -23.19088700 16.04854300 -10.02534300
H -22.98034500 16.79958700 -9.47021500
H -23.82954200 15.54154800 -9.52435100
O -5.02434400 -22.14886100 -10.95554100
H -4.11552200 -22.42965500 -11.06398200
H -5.49412800 -22.93365500 -10.67390500
O -20.63498200 -2.75691900 14.86327600
H -19.76050400 -2.41152000 14.68286000
H -21.19452400 -2.38191700 14.18342100
O 13.37652700 -9.45917900 22.25992900
H 14.00320600 -8.99308800 21.70621900
H 13.81547400 -10.27571900 22.49763800
O 5.06150000 22.22838500 15.83452300
H 4.92366300 22.95215200 15.22319300
H 5.55808100 21.57710900 15.33938300
O 14.86043600 -18.57120600 -10.96338400
H 14.46718000 -19.32374900 -11.40563900
H 14.68774400 -17.82706700 -11.53988300
O 19.67126400 -11.16290700 11.34222200
H 19.85703500 -10.37582000 10.82983100
H 20.22935000 -11.84214900 10.96395200
O 21.71258200 -15.24146200 8.59483000
H 21.77666000 -15.95008100 7.95427200
H 21.17352400 -14.57327700 8.17190900
O -3.92131300 8.04403100 21.85975500
H -3.58814600 8.89289000 21.56820700
H -4.84695200 8.19377400 22.05129300
O 14.47046700 -17.99436400 6.12396800
H 14.20325200 -17.35989300 6.78925400
H 14.05668800 -18.81670900 6.38560300
O -4.87577700 17.09252300 -12.19174600
H -5.63765200 17.66637700 -12.10928500
H -4.11903600 17.67521400 -12.13065600
O 5.18763400 -13.70771400 10.47295800
H 4.25580100 -13.85400100 10.63681400
H 5.57772300 -13.60014500 11.34024000
O -13.62951700 -11.74437100 23.74882500
H -13.58265500 -11.29966300 22.90230200
H -13.60727100 -12.67801400 23.53969800
O -1.99191300 -14.30641500 24.56919700
H -2.94501600 -14.34916100 24.64875900
H -1.82505200 -14.22744500 23.63013500
O 17.64114700 15.54587200 -2.18060100
H 17.05018300 15.08820700 -2.77882100
H 17.98499500 16.28168700 -2.68682400
O 5.57675900 -14.47201900 20.27085300
H 5.01462100 -14.66648900 19.52068900
H 5.05364100 -14.70198100 21.03856500
O -26.00113600 3.21940500 -0.06908000
H -26.63780800 3.32518800 -0.77620200
H -26.30443700 3.80249800 0.62657000
O -4.88183700 20.61028200 6.43609700
H -4.85898100 21.31609300 5.78966700
H -4.12615300 20.06059300 6.22945500
O 25.70778600 9.66201100 -2.49340200
H 25.64588200 9.63236300 -1.53849400
H 25.19478700 10.42770400 -2.75120700
O 1.34037600 0.19971500 -10.49793400
H 1.94534100 0.41183800 -9.78689100
H 0.49391200 0.54445700 -10.21408600
O 15.89940600 15.06748900 -18.76011000
H 16.63533000 14.45838200 -18.82309100
H 16.25823500 15.91684100 -19.01655000
O 7.17318900 -20.67680300 13.32274000
H 7.38061600 -20.48343200 12.40833100
H 6.21806500 -20.72823600 13.35452100
O 0.95208700 5.72882900 -22.70003100
H 1.79925300 5.59403800 -23.12512300
H 0.37779800 5.06141100 -23.07508100
O -10.18723400 -3.18311200 -5.40289200
H -10.68307500 -2.47586800 -4.98996300
H -9.36330900 -2.78070800 -5.67699900
O 3.68633300 -0.15233600 -8.56678900
H 4.45705700 -0.51916700 -8.13322100
H 3.00840800 -0.13219600 -7.89156400
O 15.50647100 -17.54485700 -18.53827400
H 15.24967500 -17.11446800 -19.35398400
H 15.10422800 -17.02188200 -17.84501000
O 1.41513800 -19.96877900 -20.46083000
H 0.96626500 -19.51067000 -21.17161300
H 1.89909500 -19.28780500 -19.99395000
O 0.99607000 -14.23495000 21.87275000
H 0.13413200 -14.39594800 22.25707400
H 1.45671100 -15.07125200 21.93851800
O 26.23973500 11.28446800 -5.95082800
H 26.77339500 12.07505900 -6.03289300
H 25.60248800 11.48579400 -5.26577300
O 23.32500200 8.31278400 13.27846400
H 23.65819700 7.41556000 13.30156100
H 24.06231600 8.85793600 13.55249700
O -11.01213800 11.72106800 -10.17888900
H -11.91247300 11.50992100 -10.42663300
H -10.84328400 12.57944100 -10.56696300
O -11.68883300 10.12981500 -4.86836600
H -12.00962800 10.23649500 -3.97266900
H -11.27224500 10.96419200 -5.08327800
O -10.84909700 23.08104000 -5.22272300
H -10.42539000 23.56311200 -5.93310400
H -11.44920700 23.70891300 -4.82077800
O -0.14632400 0.37719900 -5.39285700
H -0.61370700 0.90951400 -4.74884100
H 0.08084100 -0.42898200 -4.92983900
O -11.16097500 -20.98663700 -18.30499100
H -10.49161300 -20.73666000 -17.66778800
H -11.98974700 -20.92624300 -17.83022000
O -14.30154000 16.52401100 20.55419300
H -15.05434000 15.93716200 20.48028300
H -14.44630900 17.19745900 19.88979300
O 20.23692200 -18.12090600 -2.89457200
H 19.68755600 -17.65730100 -3.52689300
H 21.04409100 -18.32159900 -3.36798300
O 3.45882400 1.68567400 3.44169300
H 4.37708500 1.70705400 3.17169200
H 2.98950500 2.16919500 2.76208600
O -4.73204100 -8.79325300 1.25303500
H -4.96289100 -8.80334100 0.32396700
H -3.78644700 -8.64689600 1.27171900
O -16.91280700 19.65100200 -0.24491900
H -17.00475900 20.34560800 -0.89732200
H -16.48839500 18.92973100 -0.70920200
O 24.59778800 14.25459000 -4.79939300
H 24.99272500 13.60803600 -5.38467500
H 23.88506000 13.78961100 -4.36152400
O 22.27499100 15.93679800 -7.95179100
H 22.67449600 16.79001100 -8.12203900
H 21.38218500 16.00969900 -8.28868800
O 20.43204500 -8.29105500 -19.11397200
H 20.68900200 -8.86759000 -19.83379300
H 20.95469200 -7.49821800 -19.23299500
O 8.83751400 -5.26080900 27.25061000
H 9.29311100 -5.74428200 27.93999200
H 7.90914600 -5.44736600 27.38934500
O -28.95254100 0.95971700 3.96028000
H -29.75716300 1.31078300 3.57831300
H -28.25198200 1.51086100 3.61189200
O -14.91763200 -25.01091900 6.75615300
H -15.07721100 -24.77583100 7.67039000
H -14.63168300 -24.19899100 6.33791500
O -8.66097300 14.31649800 2.16036600
H -9.37874700 14.20499100 1.53672400
H -7.88187400 14.44810400 1.62036500
O -24.08499600 8.77854100 -14.27409700
H -24.23103600 9.41597800 -14.97331700
H -24.18893500 7.92400600 -14.69228900
O -5.50981400 -16.79455700 18.69443800
H -5.72796900 -17.65801000 18.34312700
H -5.32968400 -16.25290200 17.92627100
O -12.58537800 -14.65725400 -14.53468800
H -12.42346700 -15.19371800 -13.75844500
H -12.12376000 -13.83553200 -14.36855600
O -15.62014900 20.70743800 -11.94812100
H -16.31785000 21.28764500 -11.64294200
H -14.86910000 20.90833300 -11.39001400
O -25.17992600 7.68263200 3.52716600
H -24.84968700 6.80985000 3.31325900
H -24.40439300 8.18840400 3.76936300
O 21.32660800 -18.10314000 7.93634900
H 22.16944800 -18.55200800 7.86778700
H 21.04026800 -17.97443600 7.03226800
O 4.54500100 5.70860000 9.84203500
H 3.78111400 5.74229200 9.26592600
H 4.40899100 6.41325700 10.47518400
O 1.18894000 7.86695300 24.25609900
H 1.85540700 7.32001100 24.67231700
H 1.40643600 8.76234200 24.51473100
O 25.55473300 -15.51380900 -2.50689600
H 25.43162800 -15.63726900 -1.56553300
H 25.06420000 -16.22628100 -2.91638200
O -26.55429700 5.76714500 -7.18058900
H -27.42224200 5.78166400 -6.77682800
H -26.01531600 5.24082500 -6.59033200
O 3.73458500 -20.17688400 6.88594300
H 4.15411100 -20.40643300 7.71532000
H 4.19673500 -19.39570500 6.58247300
O 9.04432800 -5.00805500 -5.01127700
H 9.92322600 -5.37848100 -5.09424700
H 9.02266800 -4.61465800 -4.13910400
O -13.84706200 -6.34274700 23.60122700
H -14.73162000 -6.04987300 23.82110100
H -13.96607800 -6.99066300 22.90699600
O -6.94545100 -14.91570400 18.58987400
H -7.26872100 -15.23020900 17.74539500
H -6.24334700 -14.30239800 18.37348900
O 5.32093100 5.88059900 2.23306500
H 4.95441300 5.31285000 1.55491500
H 4.56463700 6.19566900 2.72770400
O 5.55194100 1.98895100 -4.62786900
H 5.83164500 2.73935100 -4.10324800
H 5.09616800 1.41353000 -4.01380200
O -4.49576500 11.30515600 14.44184700
H -5.31887900 11.76239600 14.26871400
H -3.89693900 11.60580900 13.75852200
O -21.53354000 5.26467600 5.92629100
H -20.92698300 4.59510100 5.60955900
H -21.11412300 6.09861200 5.71520700
O -7.75809200 4.97935800 10.30046600
H -8.21063700 4.15934000 10.10213400
H -7.15324500 4.76314000 11.00992100
O 1.63860300 -10.53490700 -18.80659100
H 2.06885700 -9.74499900 -18.47873600
H 0.71549900 -10.42710000 -18.57817500
O -13.00229400 19.84274100 -14.00974100
H -12.50888700 19.46648800 -14.73881100
H -12.63557500 19.43453100 -13.22565000
O 11.63360800 10.61332500 -20.17834600
H 12.10996200 10.90977800 -20.95408100
H 11.96976800 11.15032200 -19.46102600
O -10.39219800 24.27967600 -14.12317600
H -9.80751500 24.14027800 -14.86834500
H -9.91390300 24.86864600 -13.53985300
O 11.66071500 -4.22161800 -0.36767200
H 12.43915900 -3.88328400 -0.81052200
H 11.87528100 -4.19583500 0.56464400
O 4.44315800 -9.08629700 -4.87987400
H 5.03496300 -8.33836000 -4.96305900
H 4.70635400 -9.52141800 -4.06912400
O 3.41172100 14.45373700 14.94410400
H 4.27334700 14.23018900 14.59169900
H 3.33847700 13.95231800 15.75597300
O 12.30357600 21.31734800 12.04906700
H 13.02146800 21.91717800 11.84560400
H 12.25791400 21.30088700 13.00487000
O 6.90350300 -4.64403800 -0.28427700
H 5.98824800 -4.62154300 -0.00434100
H 7.30141700 -5.34895500 0.22628600
O -19.81315300 22.52748600 -0.21592100
H -20.46325900 21.93101900 -0.58760800
H -19.35738900 22.89886400 -0.97108600
O -2.24669300 26.76186300 10.64944600
H -2.63521800 25.94612500 10.96596000
H -1.49011400 26.91202100 11.21597700
O 24.09734900 -10.62789500 -13.19886500
H 24.80299800 -10.57379000 -12.55412200
H 23.34442300 -10.21397700 -12.77733000
O -13.02197800 19.70049500 -10.58105300
H -13.49167900 18.99325900 -10.13860600
H -12.10252700 19.56975200 -10.34989400
O 9.32847400 -10.42422000 1.09157200
H 9.83445100 -9.95017200 0.43140000
H 9.03119500 -11.22027200 0.65129400
O 1.24988900 -1.66288700 -6.33436700
H 1.24752900 -0.80373500 -6.75675700
H 0.70951200 -2.21707900 -6.89720100
O 4.76120300 -14.10755500 16.41214000
H 4.55154100 -14.84730100 15.84172000
H 4.58546800 -13.32945900 15.88336700
O 5.51127400 -23.93679800 -13.53311200
H 4.81542200 -24.49741900 -13.18951800
H 5.38138200 -23.09052300 -13.10548700
O -26.68548400 -1.03649200 -0.24089600
H -25.95648200 -1.40378300 0.25931800
H -27.46125900 -1.20101700 0.29484900
O -2.72203300 -5.59603000 4.39089500
H -3.36596400 -4.90159400 4.53115500
H -3.19112700 -6.40965200 4.57498200
O 16.79932300 -10.24866000 -15.01009500
H 16.34731400 -10.18829100 -14.16830800
H 17.06866100 -9.35264500 -15.21142100
O -5.09420000 -10.81406200 -1.07185100
H -5.31777200 -10.92274800 -0.14731600
H -5.60532300 -10.05921800 -1.36319400
O 5.11626400 28.70872700 3.09684800
H 4.72600900 28.25726100 2.34822100
H 4.56441700 29.47789700 3.23741500
O -23.38672300 17.27339100 -7.36130300
H -23.91720600 16.48732100 -7.49261700
H -22.50090500 16.94998100 -7.19805600
O 14.68326300 15.16837500 16.38890900
H 14.23255300 15.90518900 15.97596100
H 14.45869000 15.22944900 17.31721600
O -16.81786200 3.84183900 -20.98929700
H -17.06229400 3.18479000 -20.33729800
H -17.21109200 3.53756200 -21.80704000
O -3.63999100 -16.49028000 24.35668400
H -3.14597900 -16.25481900 23.57114500
H -4.04503100 -17.33270600 24.15131100
O -4.03091300 -21.17633200 2.96160800
H -4.30028100 -21.53463600 2.11566400
H -3.62195600 -20.33592300 2.75573600
O -3.43829000 16.85901200 -3.61917500
H -3.30477700 17.55742000 -4.26024000
H -3.57090500 17.31001800 -2.78555400
O 22.94691200 4.33318000 -18.12216400
H 23.59473500 4.90375200 -17.70823900
H 23.43619600 3.55473200 -18.38775300
O 19.74153900 -13.71189800 5.74977100
H 19.51773900 -12.88863100 5.31536500
H 20.18569300 -13.45321000 6.55706500
O 21.92812300 -19.40337300 -6.53513700
H 22.56346900 -18.69378500 -6.43828100
H 21.54372500 -19.27502500 -7.40213300
O 1.31928900 11.72923700 -5.66935700
H 2.06918900 11.68339900 -6.26274600
H 0.58038600 11.39535300 -6.17774800
O 12.08216900 0.42366300 25.85607800
H 11.47051800 0.56930000 26.57804300
H 12.71754000 -0.20762400 26.19326900
O 28.67678400 5.15864600 0.77036400
H 29.58943400 4.90606100 0.62953200
H 28.71326600 6.07300500 1.05060200
O -16.84278500 -4.82295100 24.32751200
H -16.39753000 -4.15459400 23.80635100
H -17.12771200 -5.48162900 23.69436300
O -13.24633600 -13.83719800 16.84146900
H -14.07316700 -14.19290000 16.51529700
H -13.09946300 -13.04224600 16.32922300
O -12.39915000 21.41702800 16.81882000
H -12.35194400 20.85896200 17.59528300
H -13.27819500 21.27793300 16.46690000
O 9.62857600 -24.95717700 -6.00643500
H 9.29659700 -25.17167400 -6.87841100
H 9.65763800 -24.00092700 -5.98078600
O 12.40766100 -16.68186700 5.22206000
H 11.96120300 -16.95627600 4.42085100
H 12.20863200 -17.36442700 5.86269700
O 22.40199900 -0.54408800 -14.39576700
H 21.79572700 -1.13997200 -14.83612900
H 23.04011300 -0.30009200 -15.06598600
O -12.23244600 24.90035900 -6.66061100
H -11.57497500 25.41944500 -6.19709800
H -11.76412600 24.50830200 -7.39741900
O 22.00637100 -9.75202000 -6.72187000
H 22.13428200 -9.07233400 -7.38385800
H 22.18599800 -10.57577100 -7.17473500
O 9.92346100 -15.92221400 1.40760300
H 10.73383300 -15.42617800 1.52510600
H 9.43378600 -15.44213500 0.74002600
O 7.02968000 -11.08107600 25.83493800
H 7.03529100 -10.22553300 26.26456000
H 7.22793400 -11.70851100 26.52987500
O -10.24341000 6.73783400 22.87322300
H -10.44448300 7.65555300 23.05740600
H -10.56448700 6.25614800 23.63532900
O -4.72422800 21.71185600 0.11823300
H -4.92419500 22.50373000 0.61774400
H -4.74684400 21.00202800 0.75975500
O 2.17864300 -7.04951200 -8.37389800
H 1.75448000 -7.89473200 -8.22473300
H 2.76684700 -6.93252300 -7.62807800
O 20.81752200 -21.39138900 -2.98069400
H 20.42827300 -21.70878900 -2.16564500
H 21.15673700 -20.52143800 -2.77084500
O 1.82216700 -4.80337400 7.24021900
H 0.91833000 -4.48848300 7.21818200
H 2.07473800 -4.89572900 6.32174500
O 23.36468600 13.79388400 -1.48569000
H 23.54807500 12.85459500 -1.45984200
H 23.93914100 14.17673400 -0.82286000
O 11.57191700 17.65858800 -11.96123700
H 10.77478900 17.57495400 -12.48483400
H 11.78321400 18.59183500 -11.97910800
O -19.18860600 -9.12411900 11.40056100
H -19.45292900 -8.42467300 11.99845000
H -19.17738500 -9.91697300 11.93644700
O 13.79711900 -14.80504500 5.77156100
H 13.55614300 -13.97113100 6.17539300
H 14.57171500 -15.09788600 6.25131300
O -14.22004000 8.21363700 6.37315300
H -13.38170200 7.75147400 6.36060700
H -14.85877800 7.57676200 6.05327600
O 3.89949000 19.77029700 17.17881800
H 3.94399500 20.46165300 16.51805400
H 3.76897600 18.96204700 16.68322200
O 5.80190300 -6.27073900 -25.11401200
H 6.43055100 -6.42069800 -25.82032400
H 5.04444300 -5.86776100 -25.53801800
O 0.02744900 27.40089800 -1.51451600
H -0.04385000 27.88813500 -0.69349300
H -0.41640800 26.56943600 -1.34844600
O 19.74275700 16.97898100 7.35014800
H 20.41847700 16.53460200 6.83780700
H 20.21369200 17.39936900 8.06946100
O -20.55311500 -15.57334400 14.66347700
H -20.59322000 -15.01324500 15.43887500
H -19.90952400 -15.15716000 14.09032900
O 0.53994000 -21.20028300 2.48621400
H 0.00359500 -21.24276500 1.69432300
H 1.25294600 -20.59944100 2.27050600
O -11.38008700 -11.99222900 -15.70361300
H -12.09993800 -12.29674800 -16.25646600
H -10.66083800 -11.81412100 -16.30931600
O -1.12577500 24.98089900 9.20819500
H -0.77099200 25.17378000 10.07623200
H -1.38559900 25.83051000 8.85242900
O 11.77034000 -15.57925700 18.91551900
H 11.73821400 -16.01394800 18.06312600
H 12.05248500 -14.68445100 18.72675200
O 10.65448200 -8.12599900 1.83302700
H 11.09091900 -7.90864300 2.65694500
H 9.81496400 -8.50667100 2.09035000
O 18.62639000 -10.68882400 -3.02788100
H 18.35581000 -10.55378000 -3.93623700
H 18.07255500 -10.10096200 -2.51446000
O 8.07116400 19.22196100 3.85526300
H 8.37815800 20.12831100 3.88435700
H 8.68893700 18.76951400 3.28118600
O 1.03736600 -3.72910300 -10.36140200
H 1.61500800 -4.40820100 -10.01252100
H 0.22902200 -3.80738400 -9.85507200
O 15.27170600 21.02099200 10.83220600
H 15.96800500 20.93922500 10.18025200
H 14.45883300 20.89121600 10.34403300
O 3.85907700 13.03775900 -20.95908800
H 3.60572100 12.22785200 -20.51589100
H 4.07580100 13.64823700 -20.25462800
O 7.67312900 12.54872300 10.96717400
H 8.19987200 12.75401200 11.73980600
H 6.78898500 12.84347900 11.18471700
O -9.21871500 -18.91161400 -13.40107100
H -8.72698000 -18.65511100 -14.18143300
H -9.16424200 -19.86679100 -13.37684400
O -17.00823400 23.77324400 -6.54690700
H -16.51791200 24.32789900 -5.93986200
H -16.57471300 23.88783300 -7.39239200
O -18.33845300 -13.74360700 -16.67181600
H -18.00267900 -13.11833500 -17.31435300
H -18.41726700 -14.56995700 -17.14810400
O -12.72201400 10.96417300 13.06374100
H -12.29450200 11.78665700 13.30314600
H -13.62022200 11.04987200 13.38279600
O -7.88247300 0.78674100 2.82224700
H -7.77882200 1.63982500 3.24422600
H -7.09569500 0.29602700 3.05909500
O 4.00157000 -7.80864600 -2.88516800
H 4.92360900 -7.55229500 -2.91142700
H 3.59656400 -7.35246400 -3.62258600
O 2.78266100 13.17574800 24.13352900
H 3.33486500 13.87988600 24.47385400
H 1.99877800 13.61374200 23.80246200
O 10.56620500 -4.86824600 20.89690800
H 11.21312100 -5.25586200 21.48666700
H 10.23483200 -4.10073000 21.36277100
O -19.30937400 19.13206200 12.69349700
H -18.53403500 18.60490100 12.49981600
H -19.74946500 19.24410900 11.85107100
O 1.81095800 -11.10773100 -6.81733100
H 2.11849800 -11.58608200 -7.58750100
H 0.87342900 -10.98142500 -6.96226200
O -7.80300200 -21.84264000 18.69645800
H -8.37172200 -22.37774600 18.14258100
H -7.44052300 -21.17834100 18.11059700
O -22.92580000 1.10477700 18.44908400
H -22.99631300 1.70083500 19.19494300
H -23.47253200 0.35386000 18.67957400
O -20.41091400 18.86973200 -2.49166800
H -20.96095300 18.79306200 -1.71183300
H -20.05605400 17.99202400 -2.63173800
O -2.21257900 -9.75400700 -17.92135600
H -2.43233700 -8.82223300 -17.92935900
H -3.04693600 -10.20633500 -18.04450100
O -3.09149000 8.96022000 8.69888000
H -2.29570500 8.50303400 8.97140400
H -2.84540600 9.43361500 7.90436400
O 9.27910700 7.64814100 1.47369500
H 9.90171000 7.08587400 1.01241200
H 9.80148800 8.11121400 2.12837000
O -22.78465800 -10.46239800 -13.24003600
H -22.24501200 -9.67281600 -13.19639200
H -22.89845500 -10.63327200 -14.17479200
O 4.00178000 2.59837800 -27.93530800
H 3.17638300 2.13140000 -27.80410600
H 4.00195700 2.84613000 -28.85971900
O -22.14832100 4.98345000 -1.57017500
H -21.57106200 4.42025500 -1.05428300
H -21.56672600 5.61952800 -1.98619200
O 14.60313400 17.77607000 6.72615000
H 13.75149100 18.10671100 6.43989500
H 14.43993900 17.37913400 7.58156000
O -2.22585900 -26.96037500 1.77620200
H -1.94390000 -27.75808500 2.22422000
H -2.00115800 -26.24780700 2.37426100
O -12.40509000 -12.50383800 -21.44180100
H -12.86098200 -13.29594900 -21.72690500
H -12.77165800 -11.80065500 -21.97759900
O -25.74944100 0.20441700 12.23273800
H -24.79773600 0.11431000 12.28469700
H -25.89967300 1.12447500 12.01631100
O 13.90351200 12.92466000 -22.08383200
H 14.60281600 13.05027200 -22.72551500
H 13.21525500 12.45640900 -22.55601800
O 0.65636500 -12.82319400 3.97700000
H 1.40931300 -12.67206600 4.54865700
H -0.10251700 -12.54053200 4.48701800
O 3.32141500 -4.49158700 3.24095600
H 3.40234200 -5.34566400 2.81602700
H 3.34517000 -4.67853000 4.17925500
O -13.57317700 -19.86958200 -14.32127300
H -13.14803700 -19.69820200 -15.16177800
H -12.96604500 -20.43818900 -13.84799400
O 7.79998600 -15.04166200 -24.75851800
H 7.69410000 -14.23114600 -24.26010600
H 7.07902700 -15.60320700 -24.47426200
O -3.99662300 -3.88096100 -2.06690500
H -4.20263700 -3.87717700 -3.00184200
H -3.48601900 -3.08448900 -1.92256700
O -15.68835500 4.50986500 -25.17015300
H -15.56552800 4.61037200 -24.22602700
H -14.81117900 4.59135000 -25.54410300
O 16.25410500 -21.59343900 10.65182700
H 15.49537300 -21.29431100 11.15323600
H 16.70106600 -22.21503200 11.22607900
O -14.88818300 -12.29420500 17.36887200
H -14.26602700 -11.83058300 17.92970900
H -15.31291500 -12.93083900 17.94351700
O -7.04865900 -14.26958500 -8.83103000
H -7.70563100 -13.60070000 -8.63727000
H -6.20795100 -13.81667500 -8.76779700
O 8.16729400 3.57514400 -3.59030300
H 7.88049500 3.60859400 -2.67751100
H 9.00658800 4.03485700 -3.60322400
O 24.20713200 2.39464900 -15.94839500
H 23.37574700 2.44245300 -16.42070300
H 24.86264100 2.71492600 -16.56778800
O 26.84361900 7.08978000 2.21990400
H 26.01177000 7.47268500 1.94066800
H 27.51295200 7.70179500 1.91437500
O -20.31972000 -6.43791800 14.71974400
H -20.17147300 -6.39798400 13.77476200
H -19.90855100 -5.64724700 15.06859200
O 1.86348500 15.17744200 1.07252600
H 1.00281500 14.84189400 0.82109800
H 2.30385500 15.37400300 0.24587300
O 8.51624100 -11.17356700 20.25579100
H 7.82682900 -11.03136800 19.60690600
H 8.36621700 -12.05899700 20.58658300
O -4.53351100 8.52867400 -3.46433600
H -5.31722200 8.29791400 -3.96344400
H -4.20254800 9.32594700 -3.87753900
O 8.91368100 4.41067800 27.97630100
H 8.43726600 4.28039500 27.15616800
H 8.81910200 5.34263600 28.17232400
O 4.75856400 24.59491400 -5.11217300
H 4.63533900 25.11970400 -4.32098800
H 4.89549800 23.70138900 -4.79788100
O -14.51160000 -9.87655900 16.38049900
H -14.11534100 -10.22391500 15.58119600
H -15.34425600 -10.34055200 16.46600900
O 3.68626900 17.78646300 -4.60093500
H 4.47042800 18.26285600 -4.87426100
H 3.65830800 17.88091100 -3.64898200
O 0.36523700 29.62159100 -4.74444400
H 0.28237000 28.67526900 -4.86348400
H 0.31244600 29.75781300 -3.79862500
O -7.40843200 14.67979500 4.47979500
H -8.09869200 15.21388900 4.08629000
H -6.92809300 14.31071500 3.73887000
O -8.31494900 13.23566500 -15.67011600
H -8.35515300 14.00863600 -15.10667800
H -7.97196500 13.55498700 -16.50456900
O -12.58000500 13.30427000 -17.42069200
H -11.65886500 13.20326700 -17.66123600
H -13.01402800 13.59951300 -18.22092500
O -0.01528000 -4.22356100 -5.78553900
H 0.33702300 -4.95011200 -5.27117600
H 0.04353800 -3.46120300 -5.20998100
O 16.17465900 20.07112300 15.32095800
H 15.51546900 19.63188100 14.78328100
H 16.78847200 19.38142200 15.57287800
O 13.16198200 -25.22848800 -8.52494800
H 13.83751700 -24.99255900 -9.16099200
H 12.51664900 -25.72951200 -9.02338200
O 14.23694300 -5.85316000 -19.43680900
H 14.37131900 -4.94934600 -19.15110900
H 14.91299100 -6.00753800 -20.09638700
O -26.22808000 14.46168400 -1.76629400
H -25.72498600 14.93054200 -1.10023800
H -25.71500200 13.67670500 -1.95728000
O -0.72528500 2.56850200 25.31617500
H -0.98753700 3.20971000 25.97696100
H -0.22920500 1.90615700 25.79692500
O -22.38641000 15.21696100 12.92542300
H -21.74197900 15.77969300 13.35507800
H -22.51935500 14.48663200 13.52946200
O 4.56671200 -8.89152700 -26.09529200
H 4.71015500 -9.50302200 -26.81782900
H 5.30733000 -8.28651000 -26.13211100
O -3.30939100 26.75003800 6.80110300
H -4.16574600 26.55811100 7.18370200
H -2.73157100 26.06123000 7.12910300
O 6.08738000 10.48499000 18.27718700
H 6.15625400 11.23864300 18.86355300
H 6.89248800 10.49919300 17.75996700
O -14.12219300 22.19406400 9.43298000
H -13.61174400 22.95713600 9.16145600
H -15.01435000 22.37502000 9.13763400
O 13.92441300 -6.22397900 -17.21802100
H 14.86560400 -6.10134600 -17.34325400
H 13.81781900 -6.38170500 -16.28011000
O 4.70977300 0.19596800 -28.80596900
H 4.42704700 0.78630700 -29.50463100
H 5.13569600 -0.53372000 -29.25548300
O -15.82266700 12.31628900 1.63620600
H -16.11385000 12.72269500 2.45266600
H -15.98802900 11.38084000 1.75243400
O 11.52036200 2.44913700 -0.13758800
H 10.66485100 2.53229500 0.28401400
H 12.14739300 2.39361500 0.58329200
O -9.15761800 -15.73313300 3.05808000
H -8.85717300 -15.79323600 2.15106100
H -9.03445500 -16.61111500 3.41848900
O -6.33703100 11.89442900 -0.36720900
H -6.41789000 11.13637800 -0.94633100
H -7.22551500 12.06254700 -0.05376000
O -5.39160200 27.32152200 11.16088200
H -4.86705800 27.69092400 10.45027900
H -5.82533100 26.55911700 10.77808200
O 5.22925300 -20.22996300 -17.28848900
H 5.28279400 -20.35480400 -18.23617500
H 4.86298200 -21.04731400 -16.95129500
O 13.87539000 17.22420500 -11.24409400
H 13.76378800 17.57440600 -12.12809900
H 14.34358600 16.39792600 -11.36229500
O -22.00839900 -14.67192400 9.39116300
H -21.24205100 -15.13017300 9.04579500
H -22.29788400 -15.19945800 10.13535600
O -3.42416000 22.45130100 19.19698500
H -3.37018600 22.95878900 18.38698200
H -3.05484600 21.59588100 18.97839700
O 0.89250000 15.83260500 2.97042200
H 1.55804700 15.78828500 3.65718600
H 0.23111400 16.43794400 3.30516100
O -20.27164400 -7.82705600 20.68323500
H -19.38411400 -8.04988600 20.40181000
H -20.80032200 -7.86205900 19.88624600
O -1.37067100 -4.31379400 -8.37531100
H -1.06032200 -3.75505200 -7.66253300
H -1.93805700 -4.95960600 -7.95469600
O -2.37266700 -16.07737100 16.30564000
H -2.35950600 -16.25274500 15.36455900
H -2.82896500 -15.24091400 16.39535300
O 21.24666400 -8.46329400 -1.58117800
H 20.58289500 -8.74358000 -2.21158500
H 21.87855100 -7.95985500 -2.09419300
O 8.43684000 11.43905700 5.20764900
H 9.32027500 11.07086300 5.18446900
H 7.89903600 10.82407000 4.70917600
O -20.40613300 7.97250600 -1.76413000
H -21.32224700 8.16234100 -1.96726000
H -20.36671100 7.93608600 -0.80860100
O 25.53408700 -2.08329200 0.58279300
H 24.81640300 -1.86120800 -0.01064700
H 26.32262100 -2.04913000 0.04153100
O 14.56017600 25.50910500 -2.55264300
H 14.99977500 25.91832500 -1.80708700
H 14.22278500 26.23861000 -3.07216900
O 10.78073200 22.11136900 -2.12252000
H 10.99015400 22.61111000 -1.33324000
H 10.13793600 21.46083300 -1.84050300
O -1.65898200 20.45701800 -4.52316700
H -2.02917500 20.80705700 -5.33371800
H -2.15050400 20.88400600 -3.82173700
O 25.19135600 14.27128000 7.59629200
H 24.98064000 15.03720300 7.06194800
H 25.73515100 13.71936700 7.03451100
O -3.81668500 -27.91397600 -9.72330500
H -3.23564700 -27.18489000 -9.50561200
H -3.95348300 -28.37693200 -8.89694300
O 2.18171800 -23.77683900 8.81011700
H 1.76832700 -23.33678700 9.55310000
H 2.24331500 -24.69596100 9.06961200
O 5.13731700 -13.62307800 -17.81965100
H 5.60435000 -14.40056300 -17.51312300
H 5.34981000 -12.93985800 -17.18406100
O -8.45408900 21.67566200 13.69101900
H -8.33673300 20.73066800 13.78989400
H -8.88567600 21.95736700 14.49742600
O 21.31425700 2.79169200 -19.55606300
H 21.76619900 2.22825000 -18.92769700
H 22.01219300 3.23866000 -20.03462400
O -6.16329600 -1.51144700 4.59549700
H -6.68472900 -1.81032900 3.85028500
H -5.59816500 -0.82436800 4.24270000
O -16.26869200 12.66263700 11.53442700
H -15.85910300 12.20748800 12.27038800
H -16.54975500 13.50556300 11.88995200
O 13.22254700 18.58882500 19.48459600
H 12.84930300 19.00024400 18.70486200
H 12.48235100 18.46744800 20.07898100
O 25.42044800 -0.50402600 -5.64431500
H 26.11537400 -0.05246000 -6.12361300
H 25.86753300 -1.18718900 -5.14499500
O 3.08971500 29.57837100 0.78579900
H 4.03441900 29.71695500 0.85573200
H 2.73844800 29.83108600 1.63941800
O 3.12916300 18.15831400 -17.79468700
H 3.54644100 17.37967400 -17.42568700
H 3.25585700 18.08263100 -18.74027500
O 28.09025700 -1.84907800 9.91553300
H 28.43244900 -1.05078900 9.51279000
H 28.39065100 -2.56024400 9.34991600
O 13.25800300 -8.16125400 -0.74177500
H 13.89091900 -8.32060400 -0.04135600
H 12.77081700 -8.98063700 -0.82650400
O 0.38353900 -26.91089900 1.62032300
H 0.19566400 -26.22664700 2.26302400
H 0.25147000 -27.73447100 2.08958200
O -25.12211000 11.47600200 -10.57196900
H -25.85175600 10.86298600 -10.66357000
H -25.03160000 11.88375800 -11.43305000
O 18.40130400 -19.40184900 -3.12038900
H 17.69857400 -19.65640800 -2.52211400
H 19.01704100 -20.13434600 -3.10516400
O -4.77331500 -11.51136200 -16.79399800
H -4.31914900 -12.07071200 -17.42441300
H -5.41248900 -11.02251500 -17.31207400
O 3.96518200 11.43089300 18.84883600
H 3.00894400 11.44814400 18.89211800
H 4.22469100 12.34551100 18.73908000
O 8.48414100 -4.47036500 -28.42605200
H 8.81688500 -4.20039700 -27.56992000
H 7.79065800 -3.84352500 -28.63116000
O -0.61511000 -16.75864300 6.95883500
H -0.11175900 -17.50152900 6.62518700
H -0.71133900 -16.16889900 6.21126600
O -24.46159000 5.70421200 14.80330700
H -24.45798600 6.64246600 14.61296700
H -25.02259000 5.60976200 15.57290100
O 17.99631600 -10.33739800 0.60485200
H 17.21055300 -10.15557500 1.12068100
H 17.90788200 -9.79699400 -0.18004300
O -12.51616800 -20.85827500 15.22869400
H -12.08094100 -20.81003300 14.37733600
H -11.81641600 -20.74363300 15.87144000
O 17.45801200 -13.98354200 1.69927000
H 17.19142300 -14.62587000 2.35722700
H 17.82087400 -13.25269700 2.19938300
O -13.34193000 15.54266200 10.75887500
H -13.41470400 16.28904700 10.16375000
H -12.47158500 15.62097600 11.14911000
O 1.96719400 29.38786300 -1.14634400
H 2.78070300 29.83947500 -1.37175700
H 1.27272000 29.92058000 -1.53342900
O 0.06826200 -12.56307400 9.27527100
H 0.04366600 -12.94292100 10.15372100
H -0.81949500 -12.24122700 9.11964700
O -26.74680900 9.92286200 1.83895400
H -26.47754200 9.02788400 2.04649300
H -27.27413800 9.84484300 1.04412400
O 4.90762400 15.74302500 0.03717200
H 5.37265200 15.25414000 -0.64202100
H 4.21990500 16.21948700 -0.42752500
O 4.51941800 15.95679400 16.10509800
H 3.97515100 16.21295300 16.84989200
H 5.02366800 15.20431600 16.41400900
O 22.59631900 -11.51443200 11.20523800
H 22.20941000 -11.00937400 10.48985000
H 22.09346200 -11.26928200 11.98173900
O -15.31022400 14.25176800 -16.15740900
H -16.15870900 14.67938500 -16.27479400
H -15.51886100 13.34832800 -15.92038000
O -7.47023800 -14.16534100 3.68912600
H -6.74982800 -13.68985800 4.10323800
H -8.07461900 -14.36963800 4.40250000
O 2.67989400 -11.49153900 -4.45565700
H 2.28669200 -12.20615400 -4.95693400
H 3.18104900 -11.92143100 -3.76287100
O -27.02553900 -1.18034200 5.36748600
H -27.87473900 -0.90868000 5.01874400
H -26.97297700 -0.77687900 6.23372700
O 5.12076600 19.32735400 -16.06735000
H 4.31986800 19.80474000 -16.28466900
H 5.82196700 19.97483800 -16.13805600
O -16.11611100 12.64599800 16.03423300
H -15.22300900 12.61207900 16.37742400
H -16.23856200 13.55208200 15.75150600
O 10.79914900 15.08299200 7.31300900
H 10.22047500 15.12582700 6.55152200
H 10.93198900 15.99392000 7.57469900
O 16.96896500 21.86525000 -4.71638800
H 16.40815500 22.42860400 -4.18282800
H 16.88190600 20.99328600 -4.33165900
O -18.05512200 -19.11528700 -8.32817300
H -18.50857800 -18.57858200 -7.67787500
H -17.81237700 -19.91565700 -7.86298500
O 2.77636700 -0.60550700 -5.15777600
H 2.22351800 -0.39950500 -4.40379800
H 3.40130300 -1.25525100 -4.83652200
O -6.50281400 19.33885700 -21.24212500
H -6.92405500 19.10518500 -22.06947900
H -5.97651200 20.11277500 -21.44206100
O -16.67574600 20.90934100 12.78373400
H -17.53870300 20.51902600 12.92345000
H -16.35363100 21.11847500 13.66033100
O -5.67218100 22.48340500 -18.13109700
H -5.22232800 23.03898900 -17.49429100
H -6.52616500 22.89574800 -18.25994100
O -7.33423300 22.24854500 17.21428200
H -7.51324300 23.11077100 17.58989300
H -7.25850000 22.39961600 16.27228400
O 21.30645500 17.30289200 12.06640600
H 20.68606900 18.02957800 12.12648900
H 21.05568700 16.82799200 11.27425500
O -15.08308100 -13.82464900 -11.24144300
H -14.88460900 -13.05801900 -11.77944700
H -14.83452200 -13.57402800 -10.35187800
O -4.91051300 0.79343600 28.66483600
H -4.83090900 0.61523900 29.60210400
H -5.29799400 1.66685300 28.61080600
O -5.08349000 19.06177600 -15.95178200
H -5.47984000 18.19785500 -15.83728700
H -4.96942400 19.40152700 -15.06438300
O -10.03387100 -10.63611400 -8.52479000
H -9.71697900 -10.00174600 -9.16799900
H -10.06552600 -11.46971100 -8.99386500
O -0.76837500 0.35173100 9.43950600
H -0.80527000 -0.27667700 8.71818500
H -1.04884800 1.18342900 9.05802100
O 10.25157900 22.03438400 3.00455900
H 11.14618500 22.14099400 2.68071400
H 10.03647300 21.11640500 2.84035900
O 14.87176400 7.70577900 -21.60019200
H 15.34428600 7.13770600 -20.99144100
H 14.82386100 8.55449700 -21.16053200
O -3.27884500 -28.47463600 -6.14101500
H -3.38025900 -27.56118000 -6.40911000
H -3.76846700 -28.97916400 -6.79035200
O -26.24212300 5.28939200 -13.10212200
H -25.40831300 4.89062900 -12.85250000
H -26.84662800 5.06216600 -12.39582200
O 4.26743100 -17.18208900 -2.19409400
H 4.28665000 -17.53953800 -1.30616200
H 4.59940300 -17.88561900 -2.75154900
O -1.66251500 -9.59028800 -5.28769900
H -2.06406200 -10.24960600 -4.72146400
H -1.59303300 -8.80587400 -4.74383900
O 24.04194700 -11.73347900 2.23116800
H 23.66736400 -10.89823800 2.51156500
H 24.11778300 -12.25217100 3.03187100
O -24.19185500 4.26408200 10.21969500
H -23.82817900 3.58331700 9.65324900
H -25.00266000 4.53647900 9.79037900
O 20.87896900 -9.51462300 -10.99143900
H 21.03089400 -10.35464100 -11.42485800
H 19.95767600 -9.31421900 -11.15568100
O 14.98942000 -18.39979900 1.63662400
H 14.91873300 -19.33559300 1.82597800
H 14.85303100 -17.96573400 2.47858700
O 9.41744900 -22.26837800 1.07525900
H 9.14896800 -22.27385000 1.99419900
H 9.10123100 -23.09881800 0.71988400
O -27.59250400 -4.12276900 -7.22731500
H -27.35158100 -4.82149900 -7.83583300
H -28.26690900 -3.61920900 -7.68286100
O -0.51982000 7.11116800 -7.26565100
H -0.09207400 6.72536100 -8.03033900
H -1.18545300 7.69805700 -7.62399700
O 2.21711700 2.77184400 6.33837600
H 2.45718900 3.58178600 5.88791000
H 2.09746200 3.02372100 7.25388500
O 2.29769100 -18.30513800 7.50028300
H 1.43379600 -18.47038700 7.87835700
H 2.89778400 -18.30169800 8.24579800
O -26.60755500 6.66238900 1.99875700
H -27.28297100 6.27944300 1.43864400
H -25.94819500 7.00272600 1.39432900
O -1.85277600 -13.44096300 11.15086200
H -1.57560900 -12.68271200 11.66544600
H -2.66073200 -13.74080400 11.56705900
O -1.21970300 -22.07127600 -17.57760300
H -0.64946800 -21.95610500 -18.33795100
H -2.01160500 -21.57529500 -17.78451100
O 9.11466500 16.44624300 -17.62163700
H 9.07539400 16.99908900 -16.84100800
H 8.81394000 15.58545300 -17.33090900
O -1.93478700 12.56081100 15.47088900
H -2.30091500 12.37897400 16.33659500
H -2.65350200 12.95306700 14.97540800
O 23.08594100 4.81277500 -11.85241800
H 22.25498700 4.71901200 -11.38627900
H 23.29284500 3.93367800 -12.16911300
O -8.21660500 24.64537200 14.84438800
H -8.40461400 24.17244300 15.65528400
H -7.31980900 24.96384500 14.94562900
O 13.29252800 -19.55854000 -3.84990200
H 12.56857000 -19.50944100 -3.22537300
H 13.94536500 -20.11751500 -3.42887100
O -21.99896700 4.75084000 10.15795100
H -21.07387700 4.99399800 10.11737500
H -22.06871700 4.16702500 10.91307500
O -8.45469200 23.58565700 5.43504100
H -8.11356100 23.17067100 6.22749100
H -8.41374300 24.52559700 5.61040600
O 14.50695000 12.93883100 13.17935900
H 15.09349900 13.65869700 13.41241600
H 15.08395600 12.23545800 12.88229500
O -1.42111000 -7.89823200 -0.02372300
H -2.08004000 -7.97678700 -0.71379700
H -0.67192400 -7.47588200 -0.44355300
O 14.52894600 15.09082700 -9.60269700
H 14.41102800 15.89250700 -9.09282700
H 13.99910000 14.43193700 -9.15431900
O -0.85533600 3.44373800 -3.25626600
H -1.18764300 3.04343900 -4.05994200
H -0.71987100 4.36525100 -3.47622000
O 27.62636000 -10.39686400 3.34882600
H 27.92543300 -9.74163900 2.71811400
H 27.66938500 -11.22994200 2.87973500
O -1.98303200 13.22640600 -11.92486200
H -1.65260400 14.11680200 -11.80414000
H -2.92368400 13.28670400 -11.75916500
O -10.36176300 8.53622000 18.98018500
H -10.31917400 8.03106400 18.16804900
H -10.81102500 9.34755900 18.74394300
O 2.95004200 17.16690400 15.15333000
H 2.38999700 16.39044200 15.14894100
H 3.44721100 17.11831300 14.33701000
O -17.68597000 -17.99801700 9.95384000
H -17.11618200 -17.65324300 10.64161500
H -17.52411200 -17.43847000 9.19448200
O 9.10532000 -18.04472500 4.41105500
H 8.96303500 -18.98653300 4.50757200
H 9.98180700 -17.88934400 4.76254500
O -1.71963400 26.79379800 1.00294900
H -0.76954500 26.67637100 0.99271200
H -1.93600200 27.13805100 0.13658200
O -6.13442900 -19.85024600 -5.92751600
H -6.84997800 -19.58814400 -5.34798600
H -5.51363200 -20.30974100 -5.36236800
O 10.11081800 20.89043700 13.28677300
H 10.35467200 20.24896100 12.61923600
H 10.01881600 20.38491300 14.09417500
O 26.50332200 11.31848400 6.69951100
H 27.23254700 10.70315700 6.62098300
H 26.48169400 11.56006700 7.62530100
O 11.69438900 -17.91449300 8.00868200
H 11.10808100 -18.50961200 8.47626900
H 12.50528100 -18.40861300 7.88944700
O 12.22226200 -15.96555200 -13.09263900
H 13.10105100 -16.27587800 -12.87357500
H 11.63292500 -16.48343900 -12.54455800
O -18.81158700 -1.66146700 23.31156200
H -19.43677100 -2.11212800 22.74357300
H -18.26671100 -2.35632100 23.68062000
O -10.03512300 7.14097800 -22.15854400
H -10.97900600 7.20955600 -22.30326200
H -9.63648400 7.47195000 -22.96319400
O -5.37278500 -28.24754100 2.75826700
H -5.53320000 -29.15056600 2.48372400
H -5.44108500 -27.72912400 1.95670800
O -12.63060300 21.88568900 -4.35825000
H -12.71527500 21.92152400 -5.31119700
H -12.65170500 20.95350600 -4.14259600
O 1.95827400 22.72653900 12.86446900
H 1.95104200 23.22180800 12.04519100
H 2.34720100 21.88149600 12.63962300
O 11.31781000 -1.60798700 3.19162700
H 11.59947200 -0.88113400 3.74742600
H 10.48902400 -1.90187700 3.56933000
O -1.23962800 -8.32055200 24.11582100
H -0.95103600 -7.40811900 24.08859300
H -1.35504500 -8.57127500 23.19945100
O -9.47921800 8.78193400 4.34190300
H -8.92057900 9.03998400 5.07531600
H -10.15165800 8.22106300 4.72812200
O 7.59375800 -3.38395400 7.93036500
H 7.35807700 -2.58825500 7.45299800
H 6.95546000 -3.44477500 8.64085400
O 17.02050700 -4.47121300 24.14976600
H 16.37711100 -4.16335600 24.78838000
H 16.68627900 -4.18030500 23.30148500
O 25.81074800 -7.43116400 6.73403700
H 26.26748400 -7.72042600 5.94392200
H 24.99626100 -7.93351200 6.74723800
O -12.45560300 27.17353400 -2.55172300
H -13.07018600 26.69097800 -1.99856100
H -11.78895600 27.50514300 -1.95044600
O -4.28946800 -13.33849700 26.06678900
H -3.70285600 -13.04088800 26.76240200
H -5.17103500 -13.23181300 26.42368700
O 20.88827000 -16.39614100 3.08487400
H 21.39297100 -16.52033900 2.28087600
H 19.97627400 -16.34460400 2.79935000
O -22.90415300 -7.79905800 -11.82942600
H -22.75612100 -7.05751600 -11.24226100
H -23.49945600 -8.37734500 -11.35286000
O -16.45659500 -21.97401400 7.59941900
H -15.90223700 -22.71178700 7.34458600
H -17.15306000 -21.94936300 6.94348800
O -17.60753800 18.57574600 14.48677700
H -18.51602300 18.43200500 14.75240000
H -17.38236700 19.43961100 14.83167000
O -14.17200400 -22.24263300 -14.29793300
H -14.81482900 -22.26820500 -13.58893000
H -13.36954200 -22.59954900 -13.91769400
O -17.02256000 -18.11939100 1.24664200
H -16.42447800 -17.37446500 1.30944900
H -17.89301500 -17.75162600 1.39821000
O 6.75263600 -1.58458900 0.31273700
H 6.27988600 -1.20349500 1.05289700
H 6.54293200 -2.51799700 0.33902000
O -0.90776600 -13.91947200 2.72437600
H -0.07656700 -14.18936700 2.33344600
H -0.98543800 -12.98726400 2.52220800
O 7.12284700 -15.72278000 19.33030300
H 7.63751800 -14.97662100 19.63839700
H 7.59664600 -16.49486300 19.63904200
O 5.33728500 -8.25907600 -12.27821300
H 5.08918300 -8.87530000 -11.58881100
H 5.95979900 -7.66164500 -11.86412500
O 7.62260800 -19.40650300 6.35602900
H 8.09752000 -20.20351100 6.11981000
H 7.01450900 -19.25684200 5.63233400
O -0.27268300 10.44778100 6.63904200
H -0.80799300 9.97734000 7.27833100
H 0.07711100 9.76932300 6.06175900
O 14.40432600 -9.49507200 -6.87301200
H 14.52354200 -9.90377100 -7.73051600
H 13.49733100 -9.68359400 -6.63272700
O -4.35889700 12.34109000 1.62487500
H -4.46543000 11.90813900 0.77766400
H -3.59509300 11.92323100 2.02225800
O -9.37213700 24.63996900 -4.14037300
H -8.74362700 24.46712400 -4.84155900
H -9.43991400 23.81521300 -3.65964300
O -3.44507500 -16.89865100 -6.84855100
H -3.51183200 -17.76685400 -7.24645800
H -3.54696900 -16.28454100 -7.57546400
O -17.97315600 -6.37669600 13.85839800
H -18.04882200 -6.59371100 12.92902100
H -18.02664300 -5.42185500 13.89493500
O -23.27367300 12.38056100 13.49882600
H -22.96923700 12.52132700 14.39552400
H -22.70541000 11.69446500 13.14916000
O -17.78134000 -20.74043200 -5.08702200
H -18.29290100 -21.07093300 -5.82569400
H -17.09401500 -21.39222200 -4.95037900
O 20.04540600 -21.01162700 -7.53002400
H 19.34643600 -21.66542600 -7.50657900
H 20.38792600 -20.98309400 -6.63683700
O -8.42531700 13.03995600 25.67132400
H -9.21320200 12.86094100 25.15775500
H -7.89785700 13.61943100 25.12186000
O -12.98672900 2.69065600 24.59278900
H -13.88746600 2.93134100 24.37528900
H -12.44056900 3.25714500 24.04807200
O -4.50070500 -13.69389700 -22.36900600
H -4.81501900 -13.40895300 -23.22724600
H -4.31703600 -12.88511500 -21.89145600
O 0.25390700 -3.32417000 -2.23771000
H -0.44120400 -3.69621700 -1.69460300
H 1.05092900 -3.41367300 -1.71553900
O 5.86590200 10.15807500 -0.03294900
H 5.18700500 10.20266600 -0.70650100
H 6.26117900 11.02959300 -0.02161500
O -0.74161100 12.62590500 4.94592700
H 0.02389300 12.23198400 5.36472500
H -0.49560100 12.72874800 4.02678600
O -15.11021700 19.46431200 -16.07043000
H -14.16520200 19.56879300 -16.18264900
H -15.35022500 18.74220200 -16.65083500
O 20.04545500 -3.60560800 -14.00305300
H 20.89896600 -3.19376000 -13.86717700
H 19.46117800 -3.17670000 -13.37809300
O 6.58503800 -6.40075900 6.07124000
H 7.53774100 -6.31109600 6.10088700
H 6.26649200 -5.91143700 6.82953400
O -4.45679500 22.63396100 9.80024800
H -4.55990000 21.84862400 10.33799900
H -5.12071600 22.55424600 9.11557900
O -20.11571400 3.59628200 16.92468400
H -19.98336300 3.21889100 17.79452300
H -20.82293700 4.23151400 17.03528800
O 5.34476900 -18.88135900 -4.83062100
H 4.99457700 -19.50183900 -4.19114300
H 6.01537500 -18.38954600 -4.35699200
O 9.97693100 8.76005500 21.17849500
H 9.23546200 9.34636600 21.02675600
H 10.47494700 8.77395200 20.36136400
O -2.07878300 0.63553400 -8.45479900
H -2.37615200 1.38360100 -8.97299600
H -1.32196100 0.29115300 -8.92865500
O -15.47296900 17.33129900 -11.64984200
H -14.57760300 17.53854800 -11.38164500
H -15.37733500 16.74562700 -12.40068100
O 20.06275700 20.29536300 7.88347800
H 19.58730000 19.47952900 7.72562400
H 20.26535100 20.28697500 8.81878700
O -14.38111600 -25.49210500 4.40042700
H -14.72842300 -25.88803100 3.60093800
H -14.28750400 -24.56192100 4.19570800
O 12.10807900 13.29893600 12.06149800
H 11.89822000 12.50177900 12.54838700
H 12.55570700 13.86337600 12.69154100
O -1.52715800 -20.29231100 -15.83851600
H -1.39884500 -21.20107400 -15.56602900
H -0.89006000 -20.15134700 -16.53862400
O 10.43892000 -7.70458600 -9.50148500
H 9.66024300 -7.32542800 -9.09348500
H 10.10297100 -8.28763700 -10.18200500
O -4.27209600 -25.27181800 6.07929100
H -3.33450800 -25.38253600 5.92044400
H -4.67088400 -26.09236700 5.79018200
O 4.57965900 -25.63447500 -3.27904300
H 4.20432000 -24.75414900 -3.25240600
H 4.80049900 -25.83717900 -2.37016600
O -20.27958400 13.82428400 -8.64326400
H -20.95218600 13.25613600 -9.01926500
H -20.37949100 13.73292500 -7.69585200
O -4.00126400 -17.64658900 -12.20459800
H -4.70508400 -18.14989700 -12.61433000
H -3.22205700 -17.84147900 -12.72495500
O 16.70595700 -12.37122100 -21.32693400
H 16.44013900 -11.46920100 -21.14731500
H 16.04600500 -12.70795300 -21.93273200
O 3.06187200 12.20958400 27.06674900
H 3.82589000 11.70963000 27.35464500
H 3.22755100 12.40622400 26.14490300
O 23.60873200 14.28499600 -9.37624600
H 24.11633200 14.75044800 -10.04127100
H 23.03439100 13.69865800 -9.86844200
O 13.41382000 -8.56315200 -20.51761000
H 13.06624700 -9.28415500 -19.99233900
H 13.80878900 -7.96362900 -19.88476800
O -4.38019600 -15.46905600 -23.86285500
H -3.70576400 -14.96429000 -24.31773400
H -5.03011400 -15.67556500 -24.53433000
O 26.83030300 -3.93149500 12.83272500
H 26.67510700 -4.15651100 11.91520500
H 26.20302300 -3.23515400 13.02649500
O 19.91738000 -9.70831000 13.20545200
H 20.69432200 -9.87744700 13.73866300
H 19.17808800 -9.96362000 13.75697800
O 7.55245700 -11.23979200 11.95916800
H 6.80201700 -11.70630700 11.59070500
H 7.70291600 -10.50451000 11.36533300
O -1.71642600 13.60295500 0.01331800
H -2.23838200 13.08979400 0.63040000
H -0.84187100 13.64068000 0.40016000
O 8.67887000 -17.58248100 9.82062300
H 8.45539600 -18.18720100 9.11285500
H 9.05303500 -16.81749800 9.38390900
O -4.03312100 11.01988500 -22.65330700
H -3.65062300 11.87600900 -22.84645900
H -4.94634200 11.20094100 -22.43158200
O -2.07131600 -11.86162300 -15.80165200
H -2.40202100 -11.01518500 -16.10288100
H -2.81953000 -12.45535900 -15.86139900
O 24.63676900 4.03794700 14.66438200
H 25.46758600 4.37913900 14.99588300
H 23.96432200 4.58035800 15.07611300
O 5.23619700 10.02627600 22.14124500
H 5.47095000 9.24558500 22.64321600
H 5.29247700 10.74882500 22.76628300
O -4.10846800 14.55023500 13.45339100
H -3.16053900 14.42320900 13.41028900
H -4.45217700 13.73117300 13.80964700
O -3.74715200 -6.90137900 25.15049000
H -4.09176800 -6.72960100 26.02701400
H -3.42763200 -7.80294100 25.18226900
O -15.74316900 3.94079500 10.72657400
H -15.68547300 4.38361300 11.57341800
H -16.45820500 4.37945400 10.26590300
O 9.87429700 -13.46618200 -6.48495700
H 9.95548100 -13.13385800 -5.59079200
H 10.67489100 -13.18477700 -6.92742400
O 4.42267100 4.18662200 3.61092000
H 5.15116900 4.20557800 4.23180100
H 3.70239300 3.77345100 4.08674200
O -15.33481200 9.59184200 -3.13005100
H -15.96488600 9.15526200 -3.70360700
H -14.98143700 10.31153000 -3.65263200
O -1.51072300 -18.60987600 7.91078700
H -2.25440900 -18.37360900 8.46546700
H -1.89948800 -18.90229200 7.08660800
O -17.03988100 22.97500900 5.16446800
H -16.42113600 23.32737400 4.52450400
H -17.74109000 23.62440300 5.21459300
O -21.05756800 -18.12186500 8.91607800
H -21.52675900 -17.78707500 8.15165800
H -21.37301300 -19.01856400 9.02717200
O -7.26808400 -17.60111600 0.37846400
H -8.14030500 -17.38810000 0.71075500
H -6.95601900 -16.79519100 -0.03265300
O -6.65619600 -9.93332700 -5.38622000
H -7.60343700 -9.80889200 -5.44795400
H -6.38759100 -10.22616800 -6.25686000
O 15.70916000 0.53190600 -22.37462900
H 15.15452400 -0.09697700 -22.83663300
H 16.34859000 0.82257400 -23.02467400
O 3.87095700 18.41577700 4.13603900
H 4.18914000 17.81232400 3.46435000
H 3.31834700 19.04019200 3.66631100
O -13.78726600 11.61914600 -5.54535400
H -14.49667200 11.68432500 -6.18493000
H -13.01264200 11.94935400 -6.00014700
O -6.27146400 26.35176500 5.75560400
H -6.23941600 27.17702800 6.23983200
H -6.73310500 25.74372100 6.33274000
O 17.80655600 18.59260700 3.68865600
H 16.96771500 18.74281900 3.25237200
H 18.11387000 17.75125100 3.35161800
O 2.92999900 20.48145400 6.15635500
H 2.94239700 19.97899500 6.97118200
H 3.58215200 20.06099900 5.59614900
O 4.43612100 -22.09221000 0.77495400
H 5.24568900 -22.56519900 0.96845900
H 4.68141000 -21.43903900 0.11988300
O 8.62744200 26.46701600 -0.30021500
H 9.05770400 26.32994200 -1.14440000
H 7.69110400 26.39610800 -0.48504000
O -15.39818200 8.57879500 20.82964500
H -15.18367100 9.25717200 20.18905900
H -15.29653300 7.75207100 20.35835600
O -2.82399900 -5.33518300 -22.97087200
H -2.06705000 -5.04384900 -22.46223200
H -3.24851800 -5.99754800 -22.42591900
O 12.92510700 -7.13380200 -22.25521000
H 13.48460100 -6.66850000 -21.63310000
H 12.05477000 -7.12903100 -21.85720500
O -5.57038900 14.58242000 -25.35198900
H -5.31815100 13.89470900 -25.96842300
H -6.52679000 14.60216500 -25.38069300
O 4.53740300 -9.11018100 -21.36800700
H 4.75165800 -8.25772400 -21.74744700
H 4.70826900 -9.74206000 -22.06618300
O -3.92590400 5.99571000 -8.13768800
H -4.79331900 5.74012500 -7.82331800
H -3.54594200 6.50989800 -7.42554000
O 20.34469800 -7.09867600 -4.60633400
H 20.74003300 -7.18659900 -5.47382500
H 21.08316100 -6.98857000 -4.00761300
O -16.55555900 13.55071100 -7.19537800
H -16.49622000 12.59539300 -7.17520000
H -17.07113300 13.78320900 -6.42333800
O 22.95125000 8.45301400 4.32720900
H 23.90579000 8.44761600 4.40060500
H 22.77389700 8.70682700 3.42164800
O 5.32329000 -18.16309500 -7.05954500
H 5.68786200 -19.04618400 -6.99788100
H 5.90878100 -17.61630500 -6.53596300
O 1.82307100 -21.94331200 0.62609600
H 2.32208600 -22.58804500 1.12795600
H 2.43763900 -21.22854500 0.46077300
O -22.35003700 5.94000500 19.09540500
H -22.17049400 5.35477600 18.35931200
H -21.81695500 5.60320700 19.81534100
O 0.00413100 -5.51513600 23.41649600
H 0.91177000 -5.49141800 23.11286800
H 0.06114200 -5.47535000 24.37100300
O 3.20354000 -2.05594000 -29.18166700
H 2.71340000 -1.55833900 -29.83643300
H 3.98359700 -2.36756700 -29.64027000
O 14.36739600 -11.77405000 1.34014600
H 14.80595100 -11.03485400 0.91845900
H 13.62829600 -11.38826900 1.81006200
O 8.50600900 -7.38448400 -13.57969900
H 8.39295700 -6.86938500 -14.37873200
H 9.45005800 -7.39438100 -13.42288400
O -4.25422700 -22.31815200 -2.91595100
H -4.03635300 -21.55402300 -2.38191000
H -4.88502500 -21.99808000 -3.56059400
O 3.08838500 -27.02619400 -4.96170700
H 2.98658000 -26.96084500 -4.01200900
H 3.73179300 -26.35502900 -5.18860300
O 13.09372200 -11.42742700 -11.67973400
H 12.20999000 -11.58365100 -11.34630500
H 13.09189200 -11.78976500 -12.56552400
O -16.41829000 8.94061000 -0.31122400
H -16.40475900 8.25161700 0.35335700
H -16.08699600 9.72046600 0.13373000
O -21.82796300 -8.67889100 17.13697300
H -21.20807100 -8.32370000 17.77425900
H -22.65674600 -8.74937200 17.61033200
O 9.45546300 23.56466500 -6.27052900
H 8.68897400 23.06165400 -6.54627700
H 9.27329600 23.81763100 -5.36568600
O 24.35822100 -15.57043100 7.60013600
H 24.41602600 -16.06017400 6.77954400
H 24.80901500 -14.74402300 7.42764600
O 25.08434700 -1.67920400 -10.58629300
H 25.15537800 -0.75322100 -10.35375700
H 24.36602500 -2.01478800 -10.05027600
O -13.52872900 25.43072800 -8.38571500
H -14.27748200 24.91442000 -8.68464200
H -12.94173000 25.47558700 -9.14025900
O -1.37672300 -24.46933800 -17.30305400
H -2.10745800 -24.07327500 -17.77815600
H -0.59186200 -24.17039100 -17.76190100
O -12.89795800 4.18704500 26.33295200
H -12.40678700 3.41210400 26.60641000
H -13.81529800 3.91439000 26.34083100
O 7.81070100 28.20612400 1.69554600
H 8.04784600 27.28269400 1.78272900
H 8.52869800 28.68621600 2.10774600
O 19.52331200 -3.79010500 18.40935600
H 19.41947700 -3.89139800 19.35567500
H 19.00607000 -3.01683200 18.18479600
O 6.78448300 24.81357300 15.43610200
H 6.50197600 24.36848100 14.63695000
H 6.14843500 24.55380900 16.10234800
O -19.77906400 9.04306100 -20.25728300
H -20.64195100 8.86941500 -19.88067300
H -19.38348500 9.69561000 -19.67968900
O -9.82383100 7.25131600 -27.08324900
H -10.32091400 8.06417100 -26.98978000
H -10.47196000 6.59154100 -27.32930300
O 11.61511500 -16.31921700 -0.35043800
H 12.24782100 -15.66533700 -0.05263900
H 10.94282500 -15.82020100 -0.81403900
O 17.62095000 -16.83292000 4.43575500
H 16.88713900 -17.37391500 4.14351100
H 17.91456600 -16.36931400 3.65167800
O 24.46926700 -8.44532000 -12.10958300
H 24.33207100 -7.89081300 -11.34129800
H 24.88695600 -7.87534500 -12.75501400
O -12.69415400 10.80504800 24.94296500
H -12.96893100 9.91631900 25.16928600
H -12.37167500 10.74323400 24.04401900
O -22.45780300 3.47440600 15.15717200
H -21.97394200 3.88135400 14.43826100
H -23.34271000 3.83350900 15.09470200
O 16.79038100 -2.90577600 21.38588900
H 17.59224700 -3.42818900 21.41152100
H 16.93486500 -2.26421500 20.69058900
O -11.17490500 -14.77987800 20.52798800
H -11.64887300 -14.63515100 19.70886000
H -10.29208400 -15.03579600 20.26143300
O 1.09822200 -13.79965100 26.12487600
H 1.95330600 -13.82175500 26.55488000
H 0.49711000 -13.45755700 26.78635400
O -8.58738700 8.97348300 23.83710700
H -8.39937800 8.03757800 23.76433000
H -8.69209400 9.27594900 22.93518200
O -11.41332100 27.20238000 5.45515100
H -10.52208400 26.85633800 5.50528800
H -11.73526200 26.93381500 4.59483500
O -0.03743800 -11.38376200 -21.49463600
H 0.65930900 -11.31736500 -20.84141700
H -0.28622200 -10.47928300 -21.68422000
O 6.15431700 14.99027300 -11.88522900
H 6.33109700 15.89827400 -12.13189900
H 6.63413600 14.46238800 -12.52321600
O -21.01340900 11.27457800 -7.29871000
H -21.32680200 11.99154000 -6.74706500
H -20.14404400 11.54838000 -7.59052400
O -3.91548500 -24.83762000 -11.76552800
H -3.35985500 -24.58076300 -11.02941500
H -3.79992200 -24.14555200 -12.41637600
O -13.31246800 11.88016200 22.05811900
H -12.51083500 11.63836600 21.59392000
H -14.00659700 11.37764300 21.63200000
O -12.93532100 -10.28940300 20.76890200
H -13.19351400 -9.37161700 20.68191900
H -12.34865700 -10.45270000 20.03060900
O 8.21006300 25.12499700 1.39178900
H 7.26477000 25.27198700 1.35467300
H 8.39392500 24.51408000 0.67842200
O 12.70652800 -5.30068300 -25.05372000
H 12.81541200 -6.24568400 -25.16179600
H 11.76352200 -5.15096400 -25.11884300
O 15.87769800 22.04400200 -0.85584200
H 15.07864500 21.73559400 -0.42810300
H 16.58339400 21.53217200 -0.46095000
O 0.90417800 -10.19810500 -0.89888600
H 0.61862600 -10.89891800 -0.31247200
H 1.72480500 -9.87975600 -0.52319700
O 7.10264500 22.30558100 -17.75996000
H 7.33650200 22.29547900 -18.68827700
H 7.44861100 21.48542100 -17.40844600
O 13.87096100 15.44216200 11.12319900
H 13.72706500 15.69122300 12.03633900
H 13.07699900 14.97367000 10.86618400
O 2.73256200 23.25726200 -17.38512700
H 2.35419000 23.88411200 -18.00193800
H 3.36222400 22.75267400 -17.89974700
O 4.33900100 20.65258900 -21.32377000
H 3.98383900 19.84317400 -20.95598100
H 4.78612800 21.08093700 -20.59403500
O 0.56422600 -21.55909300 15.19598100
H 0.81020400 -21.44636700 14.27764100
H 1.31516300 -21.99147200 15.60225700
O 11.57168200 17.39446500 10.91571400
H 11.08397500 18.15044300 11.24312800
H 12.03150400 17.04661700 11.67957500
O -13.76268000 14.47402600 12.70034300
H -12.97281400 13.93677200 12.76382700
H -14.44096000 13.88022200 12.37901700
O -16.24818000 15.13374000 10.44409700
H -15.49515800 15.24394700 11.02493700
H -17.00017700 15.43514300 10.95358100
O -17.09144200 -22.70392900 -6.71633200
H -17.29291100 -23.38362200 -7.35975200
H -16.84327000 -21.93835500 -7.23423500
O 12.10922800 -11.74364900 -0.61773800
H 12.28346000 -11.90025100 -1.54600600
H 12.78507200 -11.12571900 -0.33968300
O -5.87947800 -15.89190400 -10.40695500
H -5.29747100 -16.02527600 -11.15531400
H -6.57297700 -15.31789000 -10.73173700
O 20.64880900 -8.87660300 0.49486900
H 20.16797100 -9.24312300 1.23717600
H 21.52376900 -8.68956400 0.83454200
O 8.93053000 10.56964300 7.29063700
H 9.07753700 9.86558500 7.92250200
H 9.10938900 11.37666300 7.77297100
O 17.02761300 -19.91548300 11.92114400
H 17.46420000 -20.56875700 12.46812400
H 17.27618700 -19.07134900 12.29739500
O 8.42812200 -23.78851900 3.87950400
H 7.59721600 -23.60492100 4.31819300
H 9.03585400 -24.01286800 4.58395100
O -3.87856500 22.38551100 -19.43354700
H -3.83020200 21.57759500 -18.92218000
H -3.50392900 23.05990800 -18.86719600
O -16.29188400 -20.13557800 -9.43730100
H -16.93325500 -19.91818900 -10.11401900
H -15.78736100 -20.86394100 -9.79904600
O -15.24182900 13.67866800 -1.70828100
H -15.25218600 12.73509500 -1.86991700
H -15.79634500 14.05326200 -2.39246500
O 6.10432800 11.50844200 2.89010600
H 6.39827600 10.60667900 3.02041800
H 5.20057100 11.52225800 3.20466700
O -22.84251500 -6.12463300 15.75593900
H -22.29235700 -6.88221500 15.95583400
H -23.17296900 -5.82792000 16.60368800
O -25.66541000 -3.65705300 -9.54254800
H -26.09702600 -4.49287800 -9.72049800
H -24.89141900 -3.65319700 -10.10543400
O 6.23440200 -4.21015000 -5.72027100
H 5.78073600 -3.87060600 -4.94861100
H 6.88299800 -4.82400200 -5.37614200
O -7.43703200 -16.59820900 13.03401000
H -8.37150300 -16.76322700 13.16087100
H -7.13582400 -16.22890400 13.86395200
O 1.77826700 -5.40033700 -22.50877700
H 0.92803400 -5.06503300 -22.22375400
H 1.98826700 -4.90319300 -23.29913400
O -13.00165900 -12.92194100 -18.16308500
H -13.85047500 -12.54446400 -17.93160100
H -12.95326900 -12.85654400 -19.11665700
O 8.92766900 25.67754700 12.54746100
H 8.35681100 25.03480700 12.12607200
H 9.27697900 25.23080400 13.31838300
O -25.82555300 1.08298500 -1.07976800
H -26.65647800 1.13243900 -0.60682100
H -25.19738400 0.74431700 -0.44209700
O 22.68929400 -2.71574000 12.91362700
H 22.29145100 -2.74572000 12.04334900
H 22.70151200 -3.62504700 13.21183600
O 11.46512300 -27.72375700 0.10203100
H 11.91396000 -27.43615200 0.89726100
H 10.59426100 -27.99368000 0.39299300
O -21.54118700 -18.53425000 -6.49002400
H -22.19564800 -18.89743000 -7.08696900
H -21.45012600 -17.61777400 -6.75020900
O -29.19628000 -5.57203100 4.06575500
H -28.47065000 -5.78310500 4.65352200
H -29.34361800 -4.63348600 4.18126000
O 19.84569300 15.19068700 -11.81828100
H 20.31718900 15.76859200 -12.41851400
H 19.50020600 14.48917100 -12.37003400
O 0.41753000 11.56181300 14.29578200
H 1.21503000 11.31767500 14.76583700
H 0.65313900 12.34460900 13.79815200
O 7.95380900 17.30156500 -20.40148800
H 7.74659600 17.36094900 -21.33427900
H 8.82566300 16.90846700 -20.36598000
O -17.35248900 23.16435400 7.32917200
H -16.92820500 23.38822700 8.15768000
H -18.13509500 22.67224800 7.57671400
O -7.74842500 -11.80076500 -9.90095800
H -6.82461300 -12.05078400 -9.92592100
H -7.75167100 -10.89525900 -9.59117500
O 19.78010100 19.45588500 1.61664900
H 20.31968700 18.79024000 2.04364700
H 18.88417200 19.26251300 1.89203400
O -16.58047400 8.76741700 13.72626900
H -15.81008000 8.49556800 14.22542200
H -17.17091900 9.15367500 14.37287200
O 12.94988200 -12.58289900 14.32175300
H 12.47940500 -12.82693300 13.52447000
H 13.26061800 -13.41022300 14.68903300
O 13.92904400 -16.85380700 -0.82261300
H 14.33207000 -17.52463200 -0.27113700
H 14.66233300 -16.35175900 -1.17779300
O -9.15225000 -0.18080600 23.97801100
H -9.95740900 -0.69795200 24.00702000
H -8.96816400 -0.06114200 23.04650200
O 2.93354300 -18.82191100 -3.84709600
H 2.58873200 -19.65211200 -4.17638900
H 2.72249600 -18.17986400 -4.52470400
O -4.90312000 -9.45634000 -19.00866200
H -5.34849100 -10.22659900 -19.36208600
H -5.60321000 -8.90060100 -18.66669000
O -6.67969900 -27.49124600 -0.13972600
H -6.82210900 -27.48879800 -1.08644500
H -6.37270800 -28.37491200 0.06228100
O -17.79104100 8.73146600 -2.43805900
H -18.04823600 7.83599300 -2.65838000
H -18.20014100 8.90523800 -1.59049900
O -3.77816700 -26.91732800 3.48428000
H -3.62622900 -26.04252000 3.84231300
H -3.93082800 -27.47422800 4.24748000
O -25.32991400 0.67318200 14.50533200
H -25.04497500 1.44626600 14.01777400
H -26.28499800 0.68020700 14.44465300
O -7.68635900 15.37147000 9.77111600
H -7.34196500 15.14153900 8.90793200
H -8.27707200 16.10786900 9.61398400
O -2.91970200 16.26687900 5.81785000
H -2.94763700 15.91776000 6.70886000
H -2.54878500 17.14457200 5.90725000
O 13.22765800 1.84723800 -22.31501700
H 12.93709400 2.45641500 -21.63602000
H 13.27389900 0.99576400 -21.88053800
O -12.92167700 25.88228200 3.07070700
H -12.17547700 25.73867800 2.48836300
H -13.17104700 26.79594700 2.93305500
O 19.03066100 -13.36602700 12.00134400
H 18.90659300 -12.79418200 12.75908000
H 18.92287500 -14.25422400 12.34105800
O -4.04982600 5.34040900 7.35876100
H -4.35717900 5.98560200 7.99580300
H -3.93544900 4.53291200 7.85954500
O -0.84614700 18.41928600 12.37486200
H -0.71001300 19.16838700 11.79445100
H -0.31676700 17.71580800 11.99963900
O -7.42615500 2.71303700 -3.42466000
H -8.22485600 2.25943400 -3.69462800
H -6.95103800 2.88318000 -4.23782200
O 20.90651200 -8.62687100 -13.01748400
H 20.85967900 -9.10510800 -13.84552900
H 20.71235300 -7.71781500 -13.24515900
O 23.97329800 3.00547500 -9.74007000
H 23.44247700 3.80131200 -9.77794000
H 24.47112200 3.00067200 -10.55742300
O -3.37567300 24.49271200 4.71074500
H -2.86611500 24.57459300 5.51709900
H -4.12640700 23.94793700 4.94640400
O -26.90655400 -7.83079900 8.25103100
H -26.95149500 -7.23334100 7.50431400
H -27.61711500 -8.45638600 8.11081300
O 2.15614300 -10.59383400 7.80473500
H 1.63392200 -9.79246400 7.84540400
H 1.52611500 -11.30585900 7.91428400
O -3.61981600 -10.85304500 -3.00215100
H -3.20933600 -11.60783800 -3.42447200
H -2.89964300 -10.38079200 -2.58472300
O 3.13520900 1.40761000 -25.72341100
H 3.17589800 0.46002500 -25.85375800
H 3.60201300 1.56502900 -24.90290500
O 25.89427200 4.87828700 -2.01238700
H 25.91676800 5.80107900 -1.75839600
H 26.81261900 4.61766700 -2.08044600
O 6.48073900 18.07046500 17.27223600
H 5.79112200 17.41805200 17.14834900
H 6.14111500 18.86940700 16.86941700
O -24.52439400 -5.21311000 -3.53221400
H -24.03061600 -4.67723900 -2.91125800
H -25.31410500 -5.47560100 -3.05959100
O -7.64441800 19.52635000 5.06874200
H -7.95745300 19.10832600 4.26635400
H -7.54806100 18.81232500 5.69866300
O 13.59455900 13.31101900 17.97929200
H 12.68438300 13.42725400 17.70610800
H 13.72258300 12.36335700 18.01754300
O 1.04866700 19.61545000 -14.25461300
H 1.02413700 19.29675700 -13.35217500
H 1.21009500 20.55588600 -14.18087300
O 14.47994100 -4.80218000 -22.82315700
H 14.49070300 -4.10994200 -23.48440700
H 14.42860700 -5.61853100 -23.31999900
O -0.66104800 -6.72378200 -22.26098800
H -0.47434600 -7.46889900 -21.68958200
H -0.09050800 -6.84450800 -23.01982000
O -4.58957800 29.18886800 -0.42936700
H -5.10042100 29.54113000 -1.15841600
H -3.81553900 29.74914300 -0.37576800
O 13.52926100 -11.91037000 -22.08075700
H 14.23241500 -11.51969600 -21.56161300
H 13.90913300 -12.70580900 -22.45344000
O -14.53303000 26.17556400 0.19295100
H -14.31726200 26.34142900 1.11082700
H -13.98704100 25.43109800 -0.05920800
O -1.20818300 -14.06758100 15.32001300
H -1.45995600 -13.54822200 16.08384500
H -1.95724800 -14.01468400 14.72670000
O -17.38999500 19.24701400 4.70124100
H -16.99504400 19.57775000 5.50820500
H -17.94295300 18.51636800 4.97748300
O -2.58452200 20.18661400 -1.78038100
H -2.63552500 20.48485500 -0.87207900
H -1.67279700 19.92305400 -1.90371000
O 10.37519400 -21.71847100 -3.14261600
H 11.02763000 -21.22548900 -2.64476300
H 9.80582700 -22.11289800 -2.48218800
O 17.49478200 20.60089800 -6.45030700
H 17.11113500 20.32957300 -7.28442900
H 18.43204200 20.43022800 -6.54159400
O 10.55518900 -8.97393000 -26.60971300
H 11.11407400 -9.55485600 -26.09325000
H 10.13019000 -8.40457700 -25.96851800
O 2.90404200 15.09988800 -4.32203300
H 2.45206200 15.34807500 -3.51538600
H 3.62668500 14.53998400 -4.03881600
O 26.76480500 -6.03868400 10.44462400
H 27.06834300 -6.24034600 11.32992600
H 27.46695700 -6.33875100 9.86768400
O -11.09391000 -23.28679100 -2.51659400
H -11.89303500 -23.78484000 -2.34365200
H -10.38944900 -23.93430900 -2.49733200
O -25.56684500 -10.77199400 10.76725100
H -25.08828300 -10.89606000 9.94740500
H -26.20004000 -10.07870600 10.58195800
O 16.97880200 -14.82392900 14.63437100
H 17.31828600 -15.29140800 13.87097300
H 16.39876500 -14.15241900 14.27583400
O -28.89291700 2.42215700 -2.26640300
H -28.80427900 3.36780600 -2.38663000
H -28.41952500 2.22991500 -1.45716900
O -15.87911300 -16.12141600 -9.37607900
H -15.45178300 -15.67222200 -10.10558300
H -16.22036100 -16.93323300 -9.75080400
O 7.35918100 26.59873600 -9.21374100
H 7.75506200 26.45300400 -8.35432100
H 7.35595200 27.54903800 -9.32702400
O 5.15279200 -21.68878600 15.02221500
H 5.12676400 -20.76267000 15.26344800
H 5.95202200 -22.02737100 15.42534000
O -6.13327300 -23.46772400 2.95810600
H -5.27601300 -23.48231800 2.53213200
H -6.72510500 -23.89378000 2.33832500
O -3.20551000 -3.89023600 22.81916600
H -2.50138900 -4.02872400 23.45288200
H -3.94247000 -3.56379700 23.33515600
O -18.92474600 -15.25849400 17.57933000
H -19.11535500 -15.84017400 16.84320500
H -18.08335100 -15.55978600 17.92166700
O 10.29750900 -19.60732900 -20.23761100
H 11.16043700 -19.20502200 -20.13728300
H 10.01960100 -19.82262600 -19.34748100
O -0.24966600 -22.50826500 12.67022800
H 0.22910800 -23.25096000 13.03866000
H -1.15787800 -22.80407700 12.61053200
O 8.30516700 -23.23840400 -1.32587100
H 7.72220900 -23.81749600 -0.83457200
H 7.78793300 -22.94413500 -2.07539900
O 1.46348700 -24.93767900 -4.80502800
H 2.26060500 -24.85448500 -4.28134500
H 1.73556900 -25.39776100 -5.59888800
O 17.55760300 -16.99800600 -2.22547400
H 17.00795400 -16.72549100 -1.49050200
H 18.18215900 -17.61887800 -1.85082100
O 4.97317600 -25.86184200 2.44039700
H 5.25036600 -25.93718500 1.52713300
H 5.75468300 -25.57706000 2.91374900
O -7.29731600 5.64392200 2.96868400
H -6.40844000 5.86564600 3.24671100
H -7.22066900 5.43410200 2.03808300
O -6.89945000 5.68077500 -28.14490300
H -6.68275100 5.87434000 -27.23268800
H -7.85418300 5.73065600 -28.18863200
O -8.45603500 18.92584200 -11.51545100
H -8.12678300 19.05461300 -10.62574700
H -9.16651100 19.55991300 -11.61081900
O 2.21026500 -25.69837200 1.45177400
H 2.11117200 -25.53002800 0.51454300
H 3.00597400 -26.22491200 1.52607300
O -6.99672800 -20.52920800 15.53510400
H -7.73720700 -20.32274600 16.10574100
H -7.23094400 -21.35659000 15.11498700
O -10.38131700 -26.78720000 7.18383800
H -11.09838300 -27.07451400 6.61830400
H -9.87621300 -26.17342000 6.65086400
O 7.94095600 -28.10773900 3.51079900
H 8.63219800 -28.57079500 3.03716900
H 7.43857000 -28.79417500 3.94935400
O 19.55093400 0.09115700 -13.40363900
H 20.05685200 0.46727000 -12.68312000
H 19.08469200 -0.65046400 -13.01823900
O -10.81471900 -12.42602100 20.44713400
H -10.31186500 -12.89001500 19.77750100
H -10.37779600 -11.57997000 20.54311400
O -5.87619300 -19.91945700 11.40793200
H -5.03639900 -19.95984700 11.86583600
H -6.19769200 -19.03063700 11.55811100
O 18.30763100 13.72548600 19.39681600
H 19.00552600 13.11851400 19.14965400
H 17.49532900 13.27968100 19.15735900
O -12.42357300 -22.31111100 -10.00480500
H -13.08546500 -22.47258700 -9.33220800
H -11.60236900 -22.62147300 -9.62373200
O -2.50261200 24.52389700 -9.04597600
H -2.87807600 25.12082800 -8.39847100
H -2.17440700 23.78213500 -8.53805000
O -9.05627700 -13.49214700 -24.69585900
H -9.42439800 -12.74828800 -25.17306100
H -8.37106300 -13.83839800 -25.26726900
O -25.25356300 3.05604300 -5.86595700
H -25.10529200 3.24842000 -6.79200700
H -24.42750900 2.68662400 -5.55437800
O -13.57750500 16.17347600 3.68257200
H -13.90766300 15.46283600 4.23261500
H -13.05142200 16.71672900 4.26911300
O -5.95775000 -28.73879900 5.27244600
H -6.57570800 -28.39998500 4.62445400
H -5.26151100 -29.14917500 4.75984400
O 4.02891300 4.06895600 7.38059700
H 4.51976300 3.92668200 6.57103700
H 4.63182600 3.82360700 8.08217800
O -11.63402000 1.57765900 20.73834100
H -12.54080800 1.40502600 20.99230100
H -11.41110700 0.87779200 20.12481700
O 9.22092500 13.93683600 2.99093300
H 9.29288000 13.13906800 3.51529000
H 8.88725200 14.60055800 3.59430100
O -13.99958400 22.68727400 13.75860300
H -13.68074000 22.36202200 14.60069100
H -13.21265600 22.94383800 13.27814900
O -26.70468100 10.73410500 4.98215500
H -27.03249400 11.52237900 5.41542700
H -25.94283800 10.46747300 5.49637300
O -12.52407600 -25.40898000 6.44002100
H -12.61510500 -24.96005100 5.59934300
H -13.09174800 -26.17661200 6.37363100
O 12.32377200 4.43354100 -20.88532200
H 12.99698700 4.87657400 -21.40210600
H 12.53314900 4.64197600 -19.97502900
O 6.30271500 23.91521900 -14.41308300
H 6.17633400 24.76284300 -13.98632400
H 5.56693200 23.37808700 -14.11977500
O -17.48278100 16.55311600 -6.74722800
H -16.86290200 16.29391000 -6.06522700
H -17.03920600 17.24737200 -7.23422500
O -0.83384000 14.31568800 -23.97248100
H -0.82015500 13.59390600 -24.60129400
H -0.68994200 15.10347300 -24.49650900
O -23.39194300 -15.12558400 -4.00092200
H -24.10798700 -15.43794800 -4.55434000
H -22.67488000 -14.93771200 -4.60626600
O -7.98994900 24.51856200 -9.40241600
H -7.56233400 24.49202700 -10.25857200
H -7.40798700 25.04120800 -8.85098300
O 11.72878300 -17.07391500 15.81088700
H 10.89766700 -16.76996800 16.17616100
H 12.16217500 -17.53321100 16.53000700
O -7.91819300 3.55028100 -28.47464700
H -8.07019500 2.60889400 -28.38951200
H -7.07804500 3.62562800 -28.92674300
O 9.23257800 -6.71028100 -3.13046900
H 9.59068200 -6.03262600 -2.55679100
H 8.49045300 -7.07555800 -2.64907500
O 3.36285400 -21.18908200 2.46872600
H 3.61081400 -22.03919000 2.83258600
H 3.54701500 -20.55853400 3.16472200
O 15.82623400 -2.52451000 -24.58898000
H 16.30355800 -1.88107100 -25.11310800
H 15.20130600 -2.92276700 -25.19459900
O -8.61644600 24.01941700 0.69407500
H -8.29260200 24.88275700 0.43652600
H -8.47933200 23.46436900 -0.07341300
O 1.94846100 2.91025800 11.80547700
H 2.48545300 2.64760000 11.05767200
H 1.04673500 2.73625000 11.53616800
O 10.62401900 21.45699800 -6.02151000
H 11.22267300 20.88347700 -5.54271100
H 9.87496200 21.57586500 -5.43781500
O 2.96114800 -7.13080400 -10.59432000
H 3.80331700 -7.54301200 -10.40093500
H 3.03039200 -6.24603300 -10.23612700
O 4.69311000 -25.44588300 -7.45339800
H 5.14368900 -25.95998700 -8.12365000
H 5.33375100 -25.33969400 -6.75039000
O -0.81326500 20.43258400 16.23800500
H -0.78146100 19.79364500 16.95025900
H -0.42574900 21.22847500 16.60174600
O -14.29998600 13.26717100 6.01892400
H -13.67002400 12.67412100 6.42880300
H -14.30746300 14.04469500 6.57688400
O -4.92642400 18.00109100 -7.91415900
H -4.40725400 17.48396500 -7.29803700
H -4.43889200 18.81715900 -8.02489500
O 3.24282400 7.78992900 12.13722600
H 3.27085500 6.84809200 12.30668900
H 2.36512600 7.95356200 11.79257000
O -4.41516400 -16.84066500 16.01419400
H -4.74198400 -17.11761600 15.15801100
H -4.35616100 -17.64533600 16.52891700
O 16.56225800 -17.46522300 8.16197800
H 16.24383000 -16.84488800 8.81798900
H 15.84974600 -18.09416500 8.04939700
O -8.78160200 7.18316900 -5.49258100
H -8.05524100 7.36140700 -4.89492500
H -8.58466500 7.69032400 -6.27993500
O 9.41494500 -5.09109900 -23.12449900
H 9.70746200 -5.91855600 -22.74199300
H 9.91219500 -5.00462700 -23.93763000
O 6.46174300 20.60190900 -12.89559200
H 6.40065700 20.42845500 -11.95604700
H 7.35599800 20.35890000 -13.13469700
O -12.93641400 13.03201600 0.24262200
H -13.68933900 12.92560400 -0.33904900
H -12.18403800 12.73599100 -0.26944900
O -9.24289100 1.97967600 -0.76276700
H -8.74656500 2.37863800 -0.04788900
H -8.60946800 1.43594600 -1.23079400
O 8.19192900 -13.24043100 -16.27822600
H 7.57767000 -13.04157000 -16.98512300
H 8.57184000 -14.08738100 -16.51116500
O 17.06407300 -12.72243000 16.43839000
H 16.22747100 -13.13080800 16.21503900
H 17.41569300 -12.40690300 15.60609000
O 8.52602000 -14.86748500 -18.58194300
H 7.59980400 -14.74969600 -18.37025700
H 8.87052700 -13.98093500 -18.68806100
O -13.65206800 14.33735300 2.36226100
H -14.25076000 13.84353800 1.80165700
H -12.89139200 13.76759000 2.47476800
O 4.47625300 -6.79188600 28.87618800
H 5.38905900 -6.99457600 28.67060600
H 4.47021400 -5.85707500 29.08114700
O 19.29237700 17.68765100 5.20741000
H 18.48335400 17.79910800 5.70703000
H 19.30305200 16.76426800 4.95607700
O 12.42322500 16.66803400 -9.65149700
H 12.30906700 16.85953000 -8.72044400
H 12.31111500 15.72043600 -9.72502900
O 10.95622300 24.92105700 -0.19954200
H 10.62704800 25.69643900 0.25541700
H 10.18368400 24.52167600 -0.59903600
O 6.76824400 -25.42639900 -3.35223700
H 7.71867600 -25.51951300 -3.41984000
H 6.63334200 -24.68587700 -2.76118200
O 3.86404600 15.07855500 2.26365700
H 4.59746600 14.53723500 2.55628200
H 3.73508700 15.71963000 2.96244800
O -20.68147100 -20.98235400 -4.85619700
H -20.07797700 -20.23922000 -4.84578500
H -21.00420200 -21.05194100 -3.95791000
O 5.21335200 -10.46499900 6.24670100
H 6.05086500 -10.43886300 6.70979000
H 4.60704100 -10.88720600 6.85501500
O 3.44541500 5.47348100 26.23808100
H 3.13592600 5.75556600 27.09901500
H 4.35052200 5.78030000 26.18749300
O 0.01762100 14.59527800 20.10917400
H -0.07101500 13.69752700 19.78863100
H 0.69125400 14.99041400 19.55599900
O -4.01719500 16.80509400 19.57267800
H -3.86432400 15.87983600 19.38009300
H -3.18509100 17.12672900 19.91919200
O -14.88196900 19.18538900 4.45158100
H -14.67727400 20.03474300 4.06009700
H -14.06790100 18.90151900 4.86706500
O 17.45528800 -20.19520200 -6.42431400
H 18.38189200 -20.19408100 -6.18355300
H 17.33148900 -20.99886400 -6.92901000
O 1.64407200 22.19817700 0.61886300
H 1.51832300 21.40470000 1.13957800
H 1.42091400 22.91883100 1.20773900
O 1.49618500 21.39287700 17.67029200
H 1.52368200 22.13536700 17.06654200
H 2.41056600 21.22356600 17.89647300
O 2.50951300 -28.84908900 5.87689400
H 3.07582400 -29.36693000 5.30444800
H 1.70052800 -29.35534200 5.94877300
O 1.18631000 28.34444600 -9.75980100
H 1.94401000 28.11143700 -10.29660600
H 0.44045900 27.92570000 -10.18907200
O 5.20394000 -3.37707900 -25.64217400
H 4.35260700 -3.79341000 -25.77805200
H 5.32130600 -3.35744000 -24.69256600
O 17.42140700 16.42630800 10.04940700
H 16.84839800 16.65739200 10.78072300
H 16.87083500 16.50100000 9.27017100
O -7.86717000 -16.66906600 6.49204700
H -8.39814300 -16.00412100 6.93076800
H -8.22216300 -16.72386800 5.60497700
O -2.68110200 12.29565500 -26.59593700
H -3.52459300 12.71905500 -26.75661700
H -2.79567100 11.81937100 -25.77377800
O 1.40589300 -15.89486800 6.74233400
H 1.43089700 -16.28645900 7.61560000
H 1.81483100 -16.54259600 6.16863200
O 11.75652000 -15.42989200 -22.88533200
H 11.91759900 -14.64736400 -22.35782400
H 11.78718800 -16.15767200 -22.26459700
O -10.54421900 -2.76411800 -7.53284100
H -9.66482200 -2.80923900 -7.90859000
H -11.13457000 -2.96193800 -8.25966300
O 17.18461600 -10.74322900 -5.85402200
H 16.64356500 -10.90375700 -6.62736300
H 16.62271200 -10.24991800 -5.25667400
O -24.50681200 -1.18304600 -8.60450500
H -24.47383700 -0.60203300 -7.84430800
H -23.69020400 -1.68100600 -8.57126500
O 13.16446000 -9.62285500 -12.93709800
H 13.91287100 -9.81326500 -13.50294900
H 13.54712700 -9.32043900 -12.11367400
O 9.38643400 -5.17634900 5.28877000
H 9.33505700 -5.93742800 4.71025300
H 10.32085600 -5.05536500 5.45650700
O -0.15227800 -17.34942100 -0.51630500
H -0.76069300 -18.07797600 -0.64121000
H 0.12374800 -17.10313300 -1.39895300
O 14.32559500 0.35074600 24.06738700
H 14.21260100 -0.52413600 24.43937500
H 13.85887200 0.93571600 24.66395900
O 21.99000400 -16.48027700 -4.24942600
H 21.52075900 -15.65914800 -4.10070300
H 22.83895600 -16.36095900 -3.82403200
O -12.34496300 19.83372300 3.87486000
H -12.23977900 20.43136000 3.13436900
H -11.91293400 19.02415600 3.60306900
O 7.56172300 -24.77276700 1.51158000
H 7.34285500 -23.88141100 1.78387300
H 7.83903800 -25.21563600 2.31337800
O -17.11785000 24.62892900 -0.67627200
H -17.52342200 24.12738400 0.03120700
H -16.40670000 25.11496900 -0.25920100
O -26.43134600 3.64540000 -10.57853700
H -26.34831900 3.19588200 -9.73734600
H -27.37339300 3.74733400 -10.71297400
O -11.31043600 3.80728500 -25.26019400
H -12.16982800 3.51095700 -25.56052400
H -10.77382200 3.01562400 -25.22505300
O 2.69942800 5.10088500 2.11288700
H 2.78708500 5.57343200 1.28489100
H 2.92814500 4.19481600 1.90638100
O 0.84052600 -17.85222200 -5.61406800
H 0.45051600 -17.85036600 -6.48839600
H 1.16380100 -16.96070900 -5.48517000
O 26.57397100 -0.95180200 -12.07769900
H 26.03136300 -0.29027000 -12.50725000
H 26.97920000 -1.44215500 -12.79272400
O 6.88918600 12.09611600 20.96151500
H 5.95204500 12.25430100 20.84616500
H 6.98499900 11.83178900 21.87632000
O 17.39889800 -21.83349200 -2.60157200
H 16.74914900 -21.97641900 -1.91312500
H 18.24495500 -21.97232600 -2.17633000
O 3.15007500 27.33251500 -11.96193000
H 2.46344400 27.11844400 -12.59381100
H 3.96400600 27.04099200 -12.37235300
O 0.39646400 -22.06451600 17.59948500
H 0.10007900 -22.94662100 17.82444800
H 0.68570300 -21.68169800 18.42756000
O 21.75683000 1.45241600 -13.73412900
H 22.43083800 1.87566300 -14.26623500
H 22.22075300 1.11826400 -12.96664300
O -2.25632200 -16.35320500 -3.30578700
H -1.53382800 -16.38903100 -2.67866700
H -3.00816200 -16.04505700 -2.80012000
O -20.67407000 16.38845200 -1.17867600
H -20.49864600 15.46463600 -1.35854500
H -21.46224700 16.59334300 -1.68138300
O -3.67367400 1.50954200 -1.13120600
H -3.82918600 2.41386500 -1.40429400
H -3.49017700 1.03423700 -1.94134800
O -9.91887100 25.10407900 -1.46950800
H -9.75529900 25.84589300 -0.88682700
H -9.05043200 24.79549800 -1.72739900
O -0.28020800 -15.00349800 13.55897800
H 0.19463300 -15.68841400 13.08783300
H -0.56857900 -14.39154200 12.88202300
O 7.55555700 -21.68799600 0.04203000
H 6.76003100 -21.85996200 -0.46208200
H 7.28501800 -21.74368500 0.95834000
O -14.16154600 -16.44275100 -17.16847500
H -14.46205400 -16.45275100 -18.07740700
H -14.93863300 -16.64672600 -16.64842900
O -10.02955000 -25.38163400 -7.24434700
H -9.09457500 -25.26244300 -7.41220700
H -10.46840900 -24.79288600 -7.85810200
O 4.07514900 21.85134700 -1.19252200
H 4.64827200 22.57253600 -0.93179600
H 3.50642700 21.70155700 -0.43751500
O -6.06262900 20.92463300 -5.27519100
H -5.11120500 20.84486100 -5.20454800
H -6.23949100 20.95529400 -6.21524200
O 20.38566600 -16.28371400 -12.79157500
H 20.03032600 -15.74970000 -13.50229500
H 21.16268400 -16.70267300 -13.16121500
O -17.14147800 5.20714700 22.73207300
H -17.41366100 4.72762400 21.94942600
H -17.95733900 5.47106200 23.15708600
O 6.70276300 15.76506200 -17.92308100
H 5.79585100 15.54657900 -18.13834600
H 7.05583200 16.16677800 -18.71673300
O -24.86776700 6.87536300 -11.70434900
H -24.50869500 6.49114300 -10.90434600
H -25.81756100 6.83360300 -11.59450600
O 9.79911900 -17.51010500 -19.80124700
H 9.04429600 -16.92161700 -19.82328100
H 10.41022700 -17.15333300 -20.44559000
O -17.18601700 -14.33375700 -19.97967200
H -16.63187100 -14.51719800 -19.22083500
H -17.86461900 -13.74283100 -19.65375300
O 0.65963400 -17.26529700 -20.50648500
H 1.47347000 -17.37727000 -20.99810900
H -0.02117400 -17.17149400 -21.17253200
O -6.09984700 23.14032200 -5.17391000
H -5.38898200 22.95346200 -5.78735500
H -5.68966000 23.62984300 -4.46114600
O -11.48252600 -4.14024100 23.48654400
H -11.57545300 -3.25686900 23.12935900
H -12.26949100 -4.60575300 23.20387600
O -15.49429600 -15.76488600 15.76893200
H -16.00656000 -15.23372900 16.37886500
H -15.54731200 -16.65665700 16.11222700
O -18.05547200 15.70550500 -1.38086000
H -18.48931400 15.80949000 -0.53378900
H -17.37534500 15.04889200 -1.23185200
O 9.98531300 10.85933200 -26.02840500
H 9.08197100 10.87788500 -26.34493500
H 10.14316500 11.73596200 -25.67837600
O 1.91429900 -17.34336300 21.41158400
H 1.98294700 -16.77200600 20.64647000
H 2.36839300 -18.14783400 21.16150100
O 18.19706800 -15.24603700 -4.75826300
H 17.98657200 -15.67635800 -3.92936200
H 19.04279700 -14.82329800 -4.61010200
O -6.28290200 -15.50197100 -16.92108800
H -5.49921400 -15.55292900 -17.46862600
H -5.96887300 -15.20906400 -16.06580500
O 9.71651600 -11.18332900 -6.57788600
H 8.94488600 -10.89383000 -7.06506100
H 9.52512900 -10.97427000 -5.66378400
O -17.19686100 13.50566200 9.20643400
H -17.84407800 13.79697600 8.56393400
H -17.69167400 13.37649000 10.01537900
O -20.29171500 12.51574200 14.07855600
H -19.86179300 11.79255000 13.62169500
H -20.88601400 12.89805800 13.43314100
O -10.92116700 -14.07888900 -21.04600200
H -11.07128300 -13.71023600 -20.17530000
H -11.11670200 -15.01151700 -20.95717900
O 11.41591600 7.66910500 -25.03094500
H 10.75764500 8.15366700 -24.53250700
H 12.25734500 7.97478100 -24.69260000
O -13.75188000 -5.05625900 25.52189000
H -14.00662800 -4.39285500 26.16342000
H -13.53534100 -5.83137300 26.03979600
O -6.32834000 -20.73825600 -15.81156200
H -6.35330900 -21.33572600 -16.55920400
H -6.47323700 -19.86881000 -16.18436800
O 24.02697500 -8.53043200 -15.81000000
H 24.41967400 -8.86302900 -15.00270300
H 24.30096400 -7.61480700 -15.85977800
O 8.93833500 16.29243500 1.59047700
H 8.59089800 16.78839800 2.33200900
H 9.68596000 15.81035500 1.94342500
O 2.74782200 7.56201900 -4.25071300
H 2.57072600 6.62194600 -4.21246900
H 3.09103700 7.78479900 -3.38556000
O 1.20518500 4.85196100 -4.60394400
H 0.69939700 4.80183600 -5.41525600
H 1.27545200 3.94733600 -4.29958700
O 17.03251800 15.52070100 12.65381300
H 16.39159600 15.43390500 13.35968100
H 17.52669300 16.31287000 12.86399400
O -10.10901300 -21.46933500 17.05358900
H -9.58372500 -20.69171900 17.24319000
H -10.58092600 -21.65346900 17.86556800
O -7.31294700 11.58579500 4.53325300
H -6.58859800 11.95594300 5.03810100
H -7.84441100 11.11248000 5.17312400
O -8.00027800 19.97474300 -15.77695200
H -7.42045300 19.22948500 -15.93492700
H -8.58427900 19.99919100 -16.53475300
O 18.53783100 -13.47931800 -15.06927600
H 17.93817700 -13.99641900 -14.53114600
H 17.97293000 -12.91771000 -15.59974800
O -5.94025600 -22.49499400 16.48529100
H -5.87881800 -22.57386200 17.43742900
H -6.46589200 -23.24516000 16.20802600
O 14.13295600 24.65517300 8.51748100
H 14.54049100 25.06887100 7.75634400
H 13.45040200 24.08985600 8.15629800
O -19.74337700 -10.44309600 16.41482700
H -18.84766800 -10.51860900 16.74431900
H -20.27345400 -10.23467200 17.18391400
O -23.02903400 2.19996400 2.03443000
H -23.73670900 1.63049700 1.73199800
H -22.97045700 2.89281100 1.37682100
O 6.37376800 -10.45206500 9.61356200
H 6.05783100 -11.35342800 9.54805300
H 5.98827600 -9.99936900 8.86364300
O 9.44502600 27.67261600 -3.45370000
H 9.44107000 28.34445700 -2.77166200
H 8.76004200 27.05537400 -3.19733000
O -0.80949500 18.07954800 -23.92642200
H 0.06090500 18.40269200 -23.69287500
H -1.35463400 18.26091000 -23.16101500
O 22.30870700 -10.97128500 -2.08567600
H 22.22687800 -10.15704600 -2.58254800
H 22.85736600 -11.53805500 -2.62758100
O -11.87134900 -22.10785200 -15.97838200
H -12.80887800 -21.91448300 -15.99290900
H -11.78631800 -22.87985800 -15.41919300
O 10.29501800 19.06598900 -20.74858400
H 9.45522400 18.86113100 -21.16009300
H 10.70306700 18.21645000 -20.58216400
O 1.26122900 -23.69773400 -10.07587100
H 1.27833800 -24.42911700 -9.45833700
H 2.17662700 -23.55446000 -10.31553100
O -11.16953200 10.75566100 15.53496000
H -11.10606900 11.30167700 16.31879700
H -12.08965900 10.80063200 15.27561300
O 9.97740700 -10.68907300 13.14989200
H 9.36144000 -11.40677700 13.29837300
H 9.58390900 -10.16529500 12.45222900
O -14.57127900 6.36167300 21.90237700
H -14.96639300 5.61203800 22.34790400
H -14.59342200 7.07116600 22.54428400
O 18.17008400 23.70914900 2.78413300
H 17.50184000 24.25077600 2.36383200
H 18.70081600 23.36779800 2.06460500
O 8.44731000 -11.13452100 5.49872200
H 8.48735300 -11.13371100 6.45525600
H 7.71733900 -10.55520400 5.28088900
O -9.34625400 -16.68169500 -13.22829000
H -9.80869400 -16.05511500 -12.67141600
H -8.56235300 -16.92081600 -12.73408500
O 23.34542200 15.58867200 8.61304100
H 24.09067200 15.35077500 9.16492000
H 23.56252300 16.45232900 8.26249600
O 20.27384500 13.49549700 -15.74253000
H 21.21112000 13.51838300 -15.93631900
H 20.21719300 13.23322500 -14.82387900
O 18.97677800 21.09451400 0.38970800
H 18.30962100 21.21793400 1.06515600
H 19.77310400 21.47987800 0.75478100
O -15.43670300 18.37958000 16.62844400
H -15.64342600 19.29384400 16.82324600
H -16.12839500 18.09058600 16.03349700
O -6.10048400 18.39612600 -10.08660600
H -6.18272900 19.04472800 -9.38724000
H -6.48095100 17.59484500 -9.72728700
O -0.08803100 24.28622900 0.05705700
H 0.48831300 24.98240500 0.37285600
H -0.16231500 24.43466600 -0.88547500
O -2.58039700 2.54178500 0.47144300
H -3.47529600 2.75067900 0.73992300
H -2.35079800 1.75505000 0.96565900
O -16.83657900 11.30159600 -2.38077100
H -17.15873900 10.92642200 -3.20053900
H -16.76881100 10.56052800 -1.77898800
O 22.69253200 0.30736900 7.69746700
H 22.82514500 -0.28425600 8.43838200
H 22.78409400 1.18693900 8.06337600
O 1.28486400 -4.28033100 -26.71759700
H 0.34814000 -4.42631800 -26.58418600
H 1.68128600 -4.41291800 -25.85667500
O -1.91952600 -6.16129400 26.52611200
H -1.76803900 -6.02402900 25.59081900
H -1.93066100 -7.11165800 26.63836200
O 6.02515600 23.26177200 -7.83771400
H 6.69202400 23.43267800 -8.50302600
H 5.37697700 22.70843200 -8.27314000
O 20.55631500 14.91479300 10.31087000
H 19.75480600 15.34169600 10.00772100
H 20.43360900 13.98696000 10.11090100
O 6.80717100 -14.74609400 -2.83077500
H 7.06288900 -15.22136400 -3.62152800
H 7.02339700 -13.83134600 -3.01077500
O 3.40986400 14.98562600 22.30250500
H 2.91073000 15.43973700 22.98162900
H 4.30771600 15.30169800 22.40188600
O -16.00104600 1.26621400 17.08912400
H -16.50267800 0.67550400 17.65125200
H -15.93827800 0.81394300 16.24803600
O -4.53117400 11.85453900 21.89867700
H -4.87567600 12.09808900 22.75807400
H -4.22789000 10.95249900 21.99996700
O -18.15602800 12.88228000 -3.15266800
H -18.91553100 12.55631900 -3.63585200
H -17.75564600 13.53231700 -3.72978400
O 0.90178800 -12.04899300 -12.38940200
H 1.46148700 -11.31958600 -12.12244800
H 0.73523200 -11.90539200 -13.32082800
O 13.87768900 24.40328000 -0.67451000
H 13.15598000 23.78452800 -0.56117700
H 14.66961000 23.89450600 -0.50151500
O -19.30379600 -20.64347100 7.59019400
H -18.91691200 -21.34683500 8.11188600
H -19.56185500 -19.97654100 8.22621800
O 1.95481500 28.33303500 -3.47885800
H 2.69012400 28.23578600 -2.87352700
H 1.35380100 27.62281100 -3.25462200
O 23.46001000 10.65678900 4.17430000
H 22.53480700 10.89067200 4.09775000
H 23.89958000 11.15675800 3.48674900
O 16.58582800 -15.70086200 -14.20911200
H 17.30330100 -16.19273100 -14.60893400
H 16.34237400 -16.20489400 -13.43283900
O -12.00832600 -22.62025400 -7.41983600
H -11.62703300 -21.76100000 -7.60111100
H -11.37369100 -23.05825200 -6.85299100
O 18.64696700 0.77925300 -22.92731600
H 18.37313900 0.30704600 -23.71382700
H 18.90352700 1.64782700 -23.23662500
O 7.60438700 -14.00500800 -13.35794500
H 7.48868900 -14.95112800 -13.26831100
H 7.46345100 -13.82519100 -14.28731000
O 24.84838200 -12.27459700 9.18969800
H 24.01971300 -12.06321900 9.62003500
H 25.48425900 -12.35130900 9.90081800
O -8.84817900 11.89243500 17.47904900
H -8.41701900 12.72976500 17.65092600
H -9.37174600 11.71832600 18.26102100
O -6.02554600 16.39326400 -24.04375000
H -6.66776400 16.40875600 -23.33390700
H -5.52876000 17.20540800 -23.94606900
O 10.64619200 -24.57048200 -13.52674800
H 11.33038000 -23.96125400 -13.24873800
H 10.12319800 -24.73072300 -12.74143400
O -3.36469800 -12.64648400 23.32043100
H -3.17697600 -12.12564100 24.10148500
H -4.31765600 -12.62867600 23.23399800
O 12.67326100 16.50907000 17.42679400
H 13.28263200 16.95718800 18.01366600
H 12.54450800 17.11279100 16.69545100
O 16.20566900 -8.89527200 20.60146100
H 16.64410300 -9.51620500 20.01941200
H 15.52537700 -8.48995300 20.06402500
O -6.16925400 -5.20410500 23.28479000
H -5.69633300 -4.73065300 23.96944400
H -6.45902400 -6.01615400 23.70015200
O 1.95801800 10.68920100 -21.72373500
H 2.81694000 10.38756800 -21.42736800
H 1.67748900 11.32399200 -21.06475000
O 12.70045400 -11.75454700 8.00851100
H 12.82946800 -10.81689100 7.86457400
H 12.78378700 -12.15193900 7.14187800
O 26.86214100 7.56178100 -0.62273500
H 26.84288200 6.83900500 0.00478900
H 26.83831400 8.35496800 -0.08775500
O 3.22169400 -13.57700600 21.87866800
H 3.44162200 -14.29085100 22.47751600
H 3.33949200 -12.77791300 22.39198100
O -10.30990800 -25.58601100 -1.02952600
H -11.21076800 -25.62308500 -1.35145400
H -9.78971700 -26.03275400 -1.69716400
O -22.26329600 9.05738000 17.27132800
H -22.06982600 9.03239700 18.20861600
H -23.06752300 8.54843600 17.17077500
O 26.90899700 -9.96180400 -8.24420000
H 26.81129700 -10.86550800 -7.94363900
H 27.42435300 -9.52885000 -7.56384900
O -6.90633100 7.85265300 4.44798000
H -6.25929300 7.99738400 3.75735900
H -7.69193700 7.55112000 3.99211000
O 13.02133600 -15.96664500 -7.01606500
H 12.70308600 -16.60332000 -6.37581200
H 13.35360300 -15.23605700 -6.49476300
O -14.64667400 2.93050200 -21.53915400
H -14.17975400 2.66268800 -20.74743200
H -14.67774100 3.88610700 -21.49708700
O -2.73276900 -23.18870200 -15.10743400
H -2.95164900 -23.85498100 -15.75914400
H -2.72397000 -23.65379000 -14.27105400
O 2.75426800 23.71351400 -6.85656700
H 3.62932500 23.33752900 -6.95389200
H 2.81210900 24.27963000 -6.08709800
O -6.85374700 25.96825800 13.04622600
H -6.86534600 25.36399900 12.30373100
H -5.97429900 26.34573100 13.04465400
O 1.53369400 26.47061100 10.02798600
H 2.11255000 25.84744600 10.46747900
H 1.13123500 25.97463900 9.31527600
O 0.77678000 13.64583900 21.94267100
H 1.31545800 13.08601200 21.38322300
H 1.22023200 14.49393300 21.94484600
O -27.00020000 -12.45118900 2.50797200
H -26.22215500 -12.65617600 3.02680700
H -27.43405700 -11.74184700 2.98180600
O -8.24556000 -7.91637800 -25.90802500
H -7.95561000 -8.20395400 -25.04212100
H -7.72308200 -7.13740700 -26.09812100
O 22.34255700 -5.33437900 -3.28986400
H 22.31058700 -5.83972300 -2.47735700
H 23.03828500 -5.74022300 -3.80674900
O -2.31249700 -24.62373900 0.90334800
H -1.39231900 -24.52630700 1.14899300
H -2.79005500 -24.04496900 1.49738600
O 1.95959300 -23.48172500 3.69889300
H 2.45090400 -23.83524700 4.44064500
H 2.37658500 -23.85765800 2.92383800
O 5.39970300 -22.61438800 -4.00035600
H 6.29674200 -22.71837800 -3.68244200
H 5.22649500 -21.67450100 -3.95006700
O -9.74131100 -14.06684600 -6.24796100
H -9.18691400 -14.44355500 -5.56437000
H -10.61167000 -14.00488500 -5.85483000
O 6.00396100 -20.74190700 -20.31341600
H 5.20260200 -21.03549100 -20.74723000
H 6.52580000 -20.33605800 -21.00543200
O 7.65550600 8.08584900 26.18392300
H 7.95595400 8.25449200 27.07714900
H 8.44545900 8.12604600 25.64515200
O 9.61876600 5.80648800 -24.74922100
H 9.95147300 6.19447200 -23.93969200
H 8.93388800 5.19928400 -24.46964500
O 5.11444900 19.39270600 14.99541200
H 5.07472800 18.43615900 14.99678700
H 5.82405900 19.61026800 14.39122900
O -27.25101700 6.03408300 8.03982700
H -28.10721500 6.33620200 8.34349100
H -26.85746500 5.60251000 8.79796900
O 4.27722900 14.70379300 -22.33243900
H 4.61970200 15.33081200 -22.96971700
H 3.70844300 15.21818600 -21.75990200
O -18.47284300 9.41531900 21.66887900
H -19.08015800 9.74147300 21.00453500
H -17.73616900 9.05503700 21.17549700
O -5.65683900 22.10220900 19.11022500
H -5.56007800 22.89123200 18.57670600
H -6.59710000 22.02608400 19.27156900
O -2.04072700 -18.97172900 -2.58629000
H -2.44056000 -18.29021100 -2.04570800
H -2.52058000 -19.77146300 -2.37161900
O -4.94729600 14.59314100 5.08757700
H -4.14055400 14.45331000 5.58374000
H -5.56788600 13.95485800 5.43883200
O 21.84783200 -20.55738700 0.29432900
H 22.32711200 -20.03442800 -0.34860700
H 21.28951100 -21.13652400 -0.22412500
O 3.78163600 20.31749100 -13.92069500
H 4.57530700 19.82137300 -13.71941000
H 3.14124200 20.03595300 -13.26758800
O -15.63480500 10.56937100 5.53142800
H -15.12364800 11.04377400 6.18734100
H -15.04934100 9.88434300 5.20911400
O -12.91299900 -15.88155900 21.30570800
H -13.24356700 -16.74937500 21.07294000
H -12.42503700 -16.01221600 22.11856600
O -7.40004700 23.39090200 -16.25327700
H -6.83003800 24.13039500 -16.46493900
H -8.28900900 23.71324500 -16.40078600
O 8.62776700 -10.64200300 22.87891600
H 9.46449100 -10.90263700 22.49352700
H 8.26721100 -9.99444300 22.27345600
O 24.69643700 9.39366800 -5.06646400
H 24.42797700 8.48130800 -5.17641400
H 25.56473700 9.34986300 -4.66639800
O -10.59691400 26.19506300 -8.49387300
H -11.36586200 26.56756700 -8.06199100
H -9.89432100 26.25908300 -7.84720300
O -7.30875600 -16.91464400 -15.58314700
H -7.56991000 -16.71616000 -14.68372300
H -7.07523300 -17.84270900 -15.57417800
O 9.28446900 10.45055000 3.04182200
H 9.92715600 9.86757800 3.44637000
H 9.33007700 10.25783100 2.10550100
O 1.79738400 -10.61412700 -9.80868600
H 2.60365900 -11.04805300 -10.08831000
H 2.08090000 -9.93543000 -9.19639000
O -16.92632700 16.83009500 0.62962100
H -16.20369000 17.26112900 1.08631200
H -17.26985100 16.19276200 1.25549200
O 8.56851200 -10.09438400 -26.56932900
H 9.14313800 -10.51836600 -25.93167200
H 8.15941200 -9.37244200 -26.09251200
O 16.30944400 16.13027400 -8.00699900
H 16.55467000 15.22481600 -7.81575800
H 16.94051900 16.66479400 -7.52538800
O 2.95536600 11.86329800 -23.42073500
H 2.89543300 10.94860200 -23.69696100
H 3.16562700 12.34946900 -24.21782000
O 14.60182600 -22.99848600 -10.11651700
H 14.96168500 -23.75110500 -10.58622700
H 14.05573500 -22.54424400 -10.75789500
O -3.78544100 5.83055100 -22.67730100
H -3.81773100 4.94484600 -22.31529700
H -4.13546400 5.74852500 -23.56424600
O 21.82757700 13.93626400 -6.86851400
H 21.13669700 13.28955700 -7.01348900
H 22.46294100 13.78077700 -7.56712200
O -0.14112700 -23.44103000 10.68186400
H -0.21433100 -22.55162400 10.33522300
H -1.03046400 -23.79316300 10.65024200
O -15.49840500 -16.37562400 -12.38110400
H -16.05900500 -15.98613900 -13.05236500
H -14.78385800 -15.75024900 -12.26174100
O 7.56368100 24.89378300 -3.61259300
H 6.74494000 24.58833700 -4.00365400
H 8.03890900 25.31383400 -4.32927400
O 1.29111400 8.95946800 -6.81114700
H 1.96531900 8.59003000 -7.38169500
H 0.52173000 9.06190600 -7.37103300
O -2.16161500 3.82397700 -29.13691600
H -1.91500400 4.13847500 -28.26695300
H -3.08450100 3.58239000 -29.06053700
O -2.13235300 6.56388100 -23.96751400
H -1.88329100 5.64489000 -23.86759400
H -2.28803900 6.67779500 -24.90490500
O -12.39077500 7.00518100 -5.47503500
H -12.66623800 6.62244600 -4.64185100
H -11.54249200 6.60412400 -5.66341300
O -9.05112900 9.68608800 17.46837900
H -8.10627300 9.82293500 17.39709000
H -9.40397700 9.94639200 16.61769900
O 8.43067200 -17.48832200 -2.86838500
H 9.19372800 -17.30668800 -3.41730800
H 8.07098100 -18.30777400 -3.20755800
O -25.90414700 2.81821700 -3.29084600
H -25.04535900 2.43849800 -3.10414500
H -26.52147000 2.30049200 -2.77432800
O -1.35715200 -13.98608800 -7.09436800
H -0.73845400 -13.66592300 -7.75107800
H -1.88292300 -14.64377400 -7.54926600
O 18.20034600 14.48063900 -15.03464300
H 18.00015200 13.62413800 -14.65663400
H 18.81844200 14.88237700 -14.42433200
O -21.21265900 13.54087400 -5.19054300
H -20.85594300 12.85377000 -4.62733400
H -22.15141200 13.36058000 -5.23695000
O -26.55698800 -2.19382600 -8.16286300
H -27.22210700 -1.67831500 -7.70632400
H -25.92634100 -2.43940700 -7.48618700
O -18.44366700 1.34895300 15.64847700
H -18.02647100 1.77271900 16.39876400
H -17.99423600 1.70423900 14.88185900
O 1.17420200 22.64609400 -15.35502400
H 1.74992800 23.40794600 -15.42346200
H 1.46111200 22.05548400 -16.05128400
O 24.89089300 -4.80501000 -2.49309600
H 24.47060600 -5.59098000 -2.14356400
H 25.07490100 -5.00936900 -3.40977300
O 6.13986700 -16.76815600 6.94042500
H 6.14167100 -16.18523800 6.18097400
H 6.85167300 -17.38722700 6.77917900
O 4.59738600 -11.64743300 -15.45622900
H 3.64975600 -11.68349000 -15.32485700
H 4.73805000 -10.90425000 -16.04258300
O 11.58121900 27.32609100 4.39086200
H 12.03176800 26.99270800 5.16702100
H 11.98462900 26.86737100 3.65414300
O 22.06158500 -14.70473200 -12.96846200
H 22.04992700 -14.83713200 -13.91656300
H 22.96834000 -14.47968700 -12.76093400
O 3.55515500 -9.18891200 -7.74419200
H 3.79485600 -8.66597100 -8.50946200
H 4.26483700 -9.05021900 -7.11726900
O 10.88765400 3.54609400 26.68488100
H 11.32878200 4.14141500 26.07861200
H 10.31364600 3.01312000 26.13499900
O 6.54680500 8.50842700 7.48532800
H 7.22854300 9.03539500 7.06807400
H 6.11508600 8.04756000 6.76620500
O 16.82385200 13.73991000 11.38043000
H 15.89674200 13.51844800 11.29107700
H 17.10764200 13.97857300 10.49814800
O -5.51803000 20.41642200 8.57934900
H -5.78157700 20.23548800 9.48177200
H -4.56373900 20.48269300 8.60856600
O 3.47916000 -10.10078300 3.57988600
H 3.60200300 -11.04434000 3.68558000
H 4.00232700 -9.70340700 4.27580600
O 27.05531600 2.11453500 -12.24824200
H 26.83138500 2.54848300 -11.42477000
H 27.46986100 1.29157000 -11.98978900
O 21.83432100 -10.86993600 4.95215900
H 21.18493300 -10.59073300 4.30648000
H 22.63188700 -11.03007500 4.44801500
O 10.96423100 3.05098600 -2.37806000
H 11.68301100 3.57543300 -2.02468500
H 10.21000100 3.26192400 -1.82800600
O 2.77110900 -22.93533400 -12.83709600
H 3.25368200 -23.02398700 -13.65918200
H 2.90516600 -23.76563200 -12.38042200
O -10.02054800 10.22647600 1.47502600
H -10.93048000 10.07557100 1.21848500
H -9.80905700 11.09662800 1.13735000
O -2.28245500 -18.91498700 -22.32616800
H -2.45847300 -18.30234300 -23.04048300
H -1.61591600 -19.51012600 -22.66888200
O 7.35761800 22.05479600 -15.28622400
H 7.95505000 22.25773400 -14.56618700
H 6.62796400 21.58847900 -14.87870800
O 18.12489300 20.55627500 -10.27766400
H 18.05548400 21.41650500 -10.69208800
H 18.72874200 20.06229600 -10.83198200
O -3.59712600 7.98410800 -23.08554600
H -3.86357800 8.89426500 -23.21661600
H -2.90910400 8.02065200 -22.42131200
O -8.36463500 -10.54585000 -0.46439900
H -7.68445700 -9.90166100 -0.66173200
H -7.89652300 -11.29613500 -0.09852900
O 5.76945400 -5.67071200 -28.63869800
H 6.72179700 -5.76552400 -28.66347200
H 5.53737000 -5.74275300 -27.71302900
O 19.03811000 -12.25217800 -5.70601300
H 18.71851800 -12.13165800 -6.60038300
H 19.56648000 -11.47502700 -5.52496400
O -2.70221700 -9.70148400 19.75156600
H -2.75745600 -10.60776200 20.05516200
H -2.56669800 -9.18256800 20.54420700
O 13.85141700 15.68226700 -19.27692700
H 13.43985600 15.10171700 -18.63650500
H 14.13694200 16.44416200 -18.77303400
O 10.86946600 -8.44033900 -19.78701800
H 10.93639000 -9.33168800 -19.44411800
H 10.38257900 -7.95478900 -19.12136100
O 16.23282300 -14.90673000 -10.89680200
H 15.90787500 -14.80644700 -11.79174100
H 17.02769900 -14.37494300 -10.86086600
O -8.87382300 25.14090400 8.32057800
H -9.13102500 24.48938900 8.97321700
H -8.20258000 24.71006700 7.79168400
O -10.71765500 16.08814600 18.22576800
H -11.11398700 15.32996400 17.79606700
H -10.45615900 15.77380100 19.09105700
O -4.76381100 -13.02063500 -10.28593200
H -5.32301100 -13.51425300 -10.88609700
H -4.35298600 -12.34705100 -10.82762000
O -3.98999400 -23.18147200 -18.48465600
H -4.67170400 -23.58285700 -17.94546900
H -4.46250200 -22.66713300 -19.13895600
O 25.91820600 -11.08158400 -10.06135600
H 25.49407600 -11.60753400 -10.73962800
H 26.16218900 -10.26528600 -10.49729800
O -13.60949200 15.56787700 0.54529100
H -13.83624600 16.46151800 0.28731700
H -13.43639100 15.10918300 -0.27663000
O -8.57078400 10.77986800 -1.22607500
H -8.86369000 10.12354900 -0.59360900
H -9.06136600 10.58972500 -2.02550700
O 29.31976000 -5.12502000 -0.47871600
H 29.69414800 -4.26621000 -0.28163500
H 28.80505900 -5.35427500 0.29487400
O -18.45669600 13.97288000 4.09237500
H -18.89876500 13.51266500 4.80605500
H -18.11009700 14.77152300 4.48981300
O -2.56048500 1.08850000 26.63292200
H -2.96287300 1.07480000 25.76432600
H -3.28810500 1.21804000 27.24095600
O -15.53903900 -19.67513500 -5.72304500
H -14.66640700 -20.03210500 -5.88932300
H -16.09203000 -20.04129300 -6.41300500
O 0.76869900 11.53868400 -24.72450700
H 0.96585600 12.33569800 -24.23210400
H 1.50283900 11.43324300 -25.32935200
O 13.48633500 -15.52325400 -10.25664900
H 14.23364000 -15.81435200 -10.77948700
H 12.71563100 -15.76668000 -10.76916900
O -3.40299400 -24.11932500 10.84413100
H -3.68719100 -24.00652500 9.93689800
H -3.64748600 -25.01647400 11.07054600
O -23.43913600 10.06185900 6.61742200
H -22.75206800 9.99939700 7.28119800
H -23.47259700 10.98889800 6.38205600
O -11.11525900 -1.36015200 -25.17873400
H -10.54396100 -2.12411800 -25.25957900
H -10.52433300 -0.62503900 -25.01646600
O 18.64514800 -6.60633800 -9.17403800
H 17.85822300 -6.10958500 -8.94920700
H 18.62136800 -7.37759500 -8.60789900
O 16.39616500 16.99150400 4.49622200
H 15.54977100 16.55479200 4.59349300
H 16.36775300 17.72604600 5.10904900
O -18.05848000 5.47861600 9.13309600
H -17.23285900 5.86580300 8.84155200
H -18.64250000 6.22236800 9.28030300
O -1.70029000 23.11812900 -17.60953200
H -1.71942900 22.20738800 -17.90406000
H -1.43402300 23.62162100 -18.37863300
O -11.27457700 -10.44289000 -3.99427000
H -11.88768200 -9.73813300 -3.78455200
H -10.40781800 -10.04023300 -3.94413800
O -12.06655300 -18.70188800 9.95488200
H -11.50250700 -18.70362500 9.18131100
H -12.26065100 -19.62402100 10.12196000
O -6.26986200 -14.45035200 1.02354300
H -7.04990800 -14.97703500 1.19874400
H -5.90602600 -14.80829600 0.21396500
O 0.41558500 -20.41617900 5.91684400
H 0.78644200 -20.35085500 6.79704800
H -0.26087900 -19.74007300 5.88228500
O -1.00098200 16.97277400 1.41725100
H -0.86589500 17.76460100 1.93813900
H -0.12352300 16.69879500 1.15094700
O -24.87444700 -6.77891000 -13.41471100
H -24.79337900 -6.86818800 -12.46496400
H -25.81488800 -6.81804400 -13.58778800
O -24.70911100 8.55985900 13.56443600
H -23.76193000 8.42505800 13.52925900
H -25.05941800 8.04762800 12.83586200
O 14.78445700 -22.85417400 0.63218100
H 15.43317800 -23.17373000 1.25956200
H 15.08631200 -21.97954600 0.38758900
O 2.61186300 -8.96801200 24.87371000
H 3.54603800 -8.75854300 24.87508600
H 2.44815000 -9.37551000 25.72403900
O 25.59095100 0.99389600 7.11289100
H 24.87498600 0.55418000 7.57180900
H 25.33387000 1.91508600 7.07775500
O 5.70959200 -9.09391700 24.02456500
H 6.13598600 -8.45220500 23.45627300
H 5.05717300 -9.52117900 23.46984500
O -8.71266800 12.56456500 10.83888300
H -8.38198200 11.93912700 11.48389100
H -8.73519300 13.40442900 11.29718300
O -15.06862700 -12.54762100 -19.81867300
H -15.47689500 -13.05764600 -20.51849700
H -14.71310800 -11.77212700 -20.25241600
O -15.88721100 6.82703000 -21.35143400
H -16.64699800 6.40589400 -21.75383900
H -15.79050500 7.65864900 -21.81508800
O 8.72833500 21.06996500 -7.47940800
H 7.96537100 20.73087500 -7.01093700
H 9.27512600 20.30326500 -7.65001300
O 1.77310500 -12.02035900 1.48363300
H 1.94674100 -12.85198300 1.04225600
H 2.22450100 -12.08744700 2.32485600
O 13.45376900 -21.29845300 -9.04805000
H 13.22607600 -20.61571700 -8.41671100
H 13.09556100 -22.10586400 -8.67968700
O 14.86765700 -11.76651800 6.55337900
H 15.50551800 -11.17347100 6.95085900
H 14.91081800 -11.58380600 5.61493800
O -14.16413000 -8.04358600 -24.84761300
H -13.52475800 -7.73467200 -24.20547800
H -14.59019700 -7.25116000 -25.17387200
O -11.79266800 -5.52442500 -22.81488500
H -11.28961000 -5.34558800 -23.60956300
H -12.10562300 -6.42308000 -22.91684000
O -10.18031000 -9.55148100 21.37143200
H -9.77361600 -9.88283900 22.17228500
H -9.48652700 -9.57647800 20.71267800
O -1.82115000 5.47712300 6.41349200
H -2.53364600 5.62517400 5.79140500
H -1.09324100 6.00561600 6.08674800
O 9.51317700 27.51923100 -7.22705100
H 8.92621300 27.82950700 -6.53729400
H 9.80132900 26.65410500 -6.93645900
O -5.00529900 -25.37923900 -7.81360100
H -5.57505200 -25.44759700 -7.04726600
H -4.26381900 -25.95351100 -7.62298100
O -13.77023300 16.43377900 -9.66284300
H -13.69127900 15.75101900 -8.99638500
H -12.95255500 16.92817100 -9.60902500
O -6.97424000 15.93201000 -13.06355400
H -6.27040900 16.21333600 -13.64839500
H -7.41692900 15.22413100 -13.53136900
O -8.14435600 -22.63413000 12.44626400
H -7.21287700 -22.85171900 12.48581500
H -8.51152000 -23.23409800 11.79730700
O 7.22659400 -18.73399400 -0.26358200
H 7.72911600 -18.49480000 -1.04256900
H 6.32081100 -18.50775400 -0.47403000
O -15.90540100 -8.37738000 20.29076600
H -16.48747500 -8.78140500 20.93459500
H -15.08362700 -8.22924100 20.75837500
O 14.35442500 -21.49111000 6.64585400
H 15.27796000 -21.72577000 6.73848000
H 13.90532600 -21.97444600 7.33911700
O -17.52164200 21.29463400 3.80063600
H -17.11769900 21.80591500 3.09922100
H -18.21543100 20.79269900 3.37327700
O -18.20436000 15.11408500 -8.72613100
H -18.09765700 16.05442100 -8.87085300
H -18.61974300 15.04127000 -7.86702000
O 1.53522400 20.36426700 15.72756300
H 1.12235600 19.50227000 15.78290600
H 1.20140900 20.74716600 14.91646900
O 1.22673900 19.76365700 10.94738900
H 1.32209400 20.11065800 11.83455300
H 0.64958600 20.38235300 10.50014500
O -28.98305500 -7.47847500 -2.01413800
H -29.05220400 -7.31045400 -1.07416500
H -28.66835500 -6.65659700 -2.39016700
O 26.45664000 -7.85237200 -3.45690000
H 26.03108600 -7.05004900 -3.75979400
H 27.27287600 -7.90266500 -3.95403700
O 6.37217500 -22.40467500 -17.79925500
H 6.91054700 -23.19325600 -17.72955800
H 6.27325200 -22.25459200 -18.73925900
O -6.33348300 -1.77806400 -3.15203200
H -6.91943100 -1.48264200 -2.45492900
H -6.00701900 -2.62812900 -2.85753700
O 14.91897500 -21.44365400 -6.31158700
H 15.55004900 -22.16123300 -6.36978700
H 14.14386400 -21.75710300 -6.77728000
O -6.71617000 -5.27358700 -3.58349900
H -6.07974500 -4.73662600 -4.05593800
H -6.98672100 -5.94517400 -4.20934900
O -8.49286800 27.38299600 6.17084600
H -8.70524200 26.63256900 6.72611000
H -8.18116700 28.05726400 6.77427200
O -8.25220500 15.95048100 11.81438300
H -8.77669600 16.28231700 12.54332500
H -7.69103900 15.27749400 12.19921900
O -23.20929600 18.47684900 4.08881300
H -22.46795900 18.03962800 3.66950600
H -23.76703100 17.76757000 4.40783200
O -18.59820100 18.12955700 -13.36595600
H -18.17841900 18.73769000 -13.97466000
H -18.00192100 17.38299700 -13.31104300
O 2.35986200 -13.38091000 -1.39225600
H 1.92372600 -14.22938000 -1.47254600
H 2.99242400 -13.35866300 -2.11009100
O 20.63107100 12.61446200 -10.15746400
H 20.07989300 13.06416800 -10.79819000
H 21.43369100 12.39635300 -10.63090500
O 9.49112700 -12.95552100 -9.19702900
H 9.73075400 -12.20344500 -8.65525100
H 9.20343800 -13.62562100 -8.57725600
O -20.12093800 10.08193300 -1.20892700
H -19.48719600 10.34473100 -0.54119200
H -20.96222300 10.05169800 -0.75368900
O -1.68139100 5.27134400 26.62417800
H -1.71552000 6.20128000 26.39919500
H -1.07445900 5.21717100 27.36215900
O 14.95727000 24.59369100 -5.01354400
H 15.47911500 25.28114400 -4.59923900
H 14.49421100 24.16620100 -4.29330300
O 1.60264900 8.14818900 -23.09586400
H 0.69564400 8.32435200 -22.84512800
H 2.01838200 9.00895100 -23.14247600
O -6.91982000 3.25998200 4.51388700
H -6.16523100 2.86649400 4.95243700
H -6.55319400 3.73410300 3.76775600
O -14.06855300 -17.83243300 -2.68160800
H -13.74038100 -18.14273400 -3.52575200
H -14.01177100 -18.59035700 -2.10002100
O 26.61619300 -4.00571200 3.41736400
H 26.94821300 -4.74627800 2.90953900
H 25.75337600 -3.81892900 3.04780300
O -1.20616600 23.62240100 4.43247800
H -0.81994000 23.80257500 5.28975800
H -0.53316800 23.87322100 3.79995900
O -11.91883900 17.45091100 2.06628600
H -10.96999100 17.35726400 1.97980400
H -12.26490700 16.56362600 1.97204800
O -5.92797300 -26.96964500 9.07862600
H -5.94714300 -27.90979700 9.25837300
H -5.76676000 -26.55839300 9.92762500
O 5.95214700 2.35879100 0.56865100
H 5.39010700 3.08092800 0.28724500
H 5.43507600 1.88045900 1.21653400
O 12.46604300 -5.91333900 -4.38603000
H 12.34090700 -5.78450300 -5.32640400
H 11.64491500 -6.29563800 -4.07697800
O 17.05733100 -11.08529900 -9.29668200
H 17.66785700 -11.12694800 -8.56041700
H 16.26443500 -10.68644900 -8.93869900
O -10.69054800 5.86423500 -1.65475500
H -10.53389600 5.84011800 -0.71059300
H -11.57921300 6.20654100 -1.74971600
O -2.14339500 -3.97493500 26.42804900
H -1.98097500 -3.59190900 27.29029800
H -1.90321500 -3.29047800 25.80375100
O -12.48086000 7.73599600 21.82876100
H -12.37029100 6.91074900 22.30131100
H -12.91193800 7.49600000 21.00870600
O 20.32345500 5.65003900 -19.00452500
H 19.44476900 5.27154900 -19.03941600
H 20.91779800 4.90319000 -19.07446000
O -1.25925300 20.71452500 5.58332200
H -1.06002500 21.64957800 5.63378100
H -0.96489900 20.44515600 4.71342900
O 10.37997900 -7.75276600 -1.43595400
H 10.74523500 -7.95418600 -0.57422300
H 11.12011300 -7.81527500 -2.03945300
O -0.82659700 -11.04922400 -2.07029000
H -1.23365500 -11.81327600 -2.47905800
H -0.55839600 -10.49128600 -2.80014600
O 24.56434200 -4.76227100 12.04729000
H 24.96554800 -5.50231500 11.59129600
H 24.76764000 -4.90145700 12.97206800
O 16.77312400 -12.29964500 -12.99472900
H 17.05766900 -13.16358400 -12.69605500
H 17.41041100 -12.04601500 -13.66215200
O 0.38794900 29.12387700 1.07373800
H 0.72664900 29.00426200 1.96117100
H 0.71100400 29.98178200 0.79887200
O 7.40797000 -16.34292800 -11.56690000
H 7.75700700 -16.96927200 -10.93252800
H 7.34742200 -15.51527500 -11.09020100
O 3.20632600 -14.11892500 3.38182400
H 3.38166000 -13.26527300 3.77818000
H 3.50925000 -14.75820200 4.02640100
O -20.22179400 0.42717100 22.07631400
H -19.27734400 0.54958500 22.17424400
H -20.55658700 1.28407200 21.81258800
O -21.00232600 15.72075600 -9.96381900
H -20.16653900 16.03255400 -9.61625000
H -20.77564800 15.23938700 -10.75931700
O -6.50842700 13.47126000 -18.51422300
H -5.72851800 13.86007400 -18.91061600
H -6.17504500 12.88442600 -17.83569700
O -26.09032400 10.38517500 -8.39722600
H -25.16691100 10.63782600 -8.39117400
H -26.45357900 10.75501500 -7.59275000
O -4.79910900 -18.42906200 4.94424300
H -5.67757100 -18.39900600 5.32367000
H -4.93495900 -18.64519800 4.02188400
O 15.14158800 -13.30669400 -17.57081100
H 14.82492400 -14.19742000 -17.72211800
H 15.06350400 -13.17315200 -16.62636000
O -6.63988400 -7.45578500 -1.91028000
H -7.27216400 -7.18082800 -1.24606300
H -5.93821400 -7.88548500 -1.42147000
O 6.67286600 -9.54107500 -6.17242600
H 7.21315600 -8.81565600 -5.85871500
H 6.40299500 -10.00868500 -5.38221900
O -3.77416900 -27.52767100 -1.09266200
H -3.06225300 -27.68952900 -0.47335600
H -4.52718500 -27.29592200 -0.54936000
O 22.17744000 14.98566800 0.21681900
H 22.01427900 14.04244400 0.23320500
H 22.70159800 15.15997300 0.99835200
O -20.49107600 12.43552100 9.33650100
H -19.55681700 12.56634500 9.17338300
H -20.79323500 13.25873600 9.71982100
O 10.94328400 15.50289500 -16.78441600
H 11.28376800 16.16599200 -17.38519500
H 10.92727700 14.69249600 -17.29325300
O -17.25327600 16.04858000 13.50105700
H -16.92744600 16.61173800 12.79873900
H -17.33629300 15.18139100 13.10481400
O 19.58510000 -4.75136400 -22.22274500
H 20.06703300 -4.30132700 -21.52864900
H 18.79171400 -5.08008100 -21.80037000
O 4.28942800 19.41697600 11.16899400
H 4.61229400 19.70118500 10.31369100
H 3.36731400 19.20359700 11.02724400
O -12.35851400 -21.89097000 10.50046400
H -11.79578400 -22.28630000 9.83442300
H -13.19808100 -21.74973700 10.06331700
O 11.78350400 -25.67564800 7.90634500
H 11.37506200 -26.24680000 7.25555800
H 11.77441300 -26.18039700 8.71940200
O -11.10989000 -3.14851400 -2.66164000
H -10.45668700 -3.59991600 -2.12673500
H -11.52088300 -2.51775000 -2.07076000
O -17.51846400 7.12291600 7.05650200
H -17.67450300 7.52741800 6.20292700
H -18.07931400 7.60392300 7.66477600
O -6.05876700 -0.13588200 -6.39332900
H -6.25519600 -0.33396500 -7.30915800
H -6.91270400 -0.04817000 -5.97022800
O 3.03676700 25.41231800 8.23180400
H 3.18322100 26.28947800 8.58635200
H 3.52849200 24.82710900 8.80769700
O 8.22287200 -5.09992200 -9.98201100
H 7.88935100 -4.21241800 -9.84911400
H 8.04893500 -5.55575700 -9.15867800
O -2.74545800 18.70906200 3.90760500
H -2.78996600 19.05895900 4.79763500
H -3.62325300 18.37168900 3.72991600
O 14.77307500 -17.32836100 -6.54002700
H 14.75585100 -17.68385400 -5.65126900
H 15.22408800 -17.99086700 -7.06308600
O 18.32468900 -7.88666400 -4.18311900
H 18.86682500 -8.31183600 -3.51837800
H 18.25230800 -8.52720400 -4.89049900
O 20.20975800 -12.95228400 17.62464500
H 19.55270600 -12.43620900 17.15719400
H 21.02387700 -12.81320200 17.14113400
O 1.90586800 -14.27895900 -7.51253000
H 1.39771000 -14.57589500 -6.75743700
H 2.79221300 -14.14490100 -7.17736100
O 10.14410500 24.74443700 -3.56514400
H 10.19889100 25.59718200 -3.99686800
H 9.74005400 24.92222600 -2.71599700
O -3.12940900 2.02644300 -3.87143700
H -3.26352600 2.57404900 -4.64519600
H -2.71988600 1.22700200 -4.20174300
O 13.25376300 20.28518000 -12.66780500
H 12.70515900 20.93893200 -13.10163000
H 14.00029800 20.16028700 -13.25347100
O 19.10849400 -5.76056500 -18.96601300
H 19.54579400 -5.62365000 -19.80659900
H 18.92458800 -6.69916500 -18.93247100
O 11.76941500 14.42641200 22.59573700
H 12.63660500 14.58756300 22.96799300
H 11.23824800 15.17264200 22.87308000
O -4.25398400 26.71114400 -1.03097200
H -4.80691700 26.67490400 -1.81168500
H -3.40311500 26.37702700 -1.31435400
O 0.21704200 -16.45758800 15.14843600
H 1.07915900 -16.04884500 15.06940700
H -0.22736200 -15.96677800 15.83946900
O -3.55292300 -3.16774700 6.54162400
H -3.70018900 -3.89702000 7.14414800
H -3.16129900 -2.47859100 7.07791800
O 10.34826300 -26.88960000 2.34140400
H 10.01548100 -26.43700000 3.11662700
H 10.63564100 -27.74557700 2.65863400
O 14.47930100 23.06704500 10.66953800
H 13.78211900 22.95879300 10.02240500
H 14.96870600 23.83680700 10.37994300
O -5.02547400 24.54015400 7.01621000
H -5.59923600 24.14090000 7.67039300
H -4.13813500 24.31184000 7.29264900
O 10.58476400 -17.85793600 20.88016700
H 11.28824900 -17.52656500 21.43861400
H 10.04907900 -18.40458900 21.45473600
O 7.42186800 -13.69466200 17.86371600
H 6.51671200 -13.97716100 17.73162500
H 7.54090300 -12.95704300 17.26566400
O 4.90973800 24.77473600 -2.09041300
H 5.20080300 23.97590200 -2.53053500
H 4.06540500 24.54906600 -1.70042600
O -1.27244000 6.88346200 -3.01223900
H -1.13287700 6.48925500 -3.87345000
H -1.99016700 7.50406600 -3.13728200
O -25.69043300 0.96485900 -4.74729500
H -26.49586300 1.45526000 -4.91268000
H -25.82739000 0.54226500 -3.89960800
O 28.28275700 -10.00347700 0.17270500
H 27.77864400 -9.29301800 0.56979600
H 27.98315900 -10.79728500 0.61545400
O 4.14626800 -25.32527300 5.23909500
H 4.57256100 -26.00638200 4.71859000
H 4.86363600 -24.81456700 5.61390100
O -27.43848800 -2.16731700 -10.34315200
H -28.11315000 -1.95170600 -9.69902000
H -27.21367500 -1.33320500 -10.75501800
O -14.68448000 -0.22393000 -24.37958900
H -14.83637600 0.65137900 -24.02276300
H -13.73414100 -0.29366000 -24.46853000
O 16.93078200 -9.67032400 -22.31480500
H 17.30643200 -8.94489200 -22.81400200
H 16.42358000 -10.17300700 -22.95196500
O -1.64885000 1.87524100 -27.93564000
H -0.77329800 2.21521800 -28.12107300
H -2.01598700 1.65624100 -28.79189200
O -17.01218200 9.43505600 7.07006600
H -17.20017700 9.58983700 7.99595000
H -16.12967000 9.06510600 7.05499200
O 3.20148400 9.17031200 -26.33382200
H 2.66846900 8.38124400 -26.23468700
H 3.61842300 9.29624800 -25.48163700
O -27.52029900 -8.43270600 5.56265600
H -28.11006300 -7.68948700 5.69058200
H -27.92208300 -9.15390900 6.04675600
O -8.66009200 18.02708200 19.56000700
H -8.91373300 17.76659800 20.44565700
H -9.33546300 17.65893700 18.99056900
O -4.94848600 7.98954600 6.21391600
H -4.79928600 8.17979300 7.14025700
H -4.75506600 7.05715200 6.11827300
O -28.92120400 7.61781500 -2.38989600
H -29.02995800 7.44770200 -1.45405600
H -28.65640500 8.53579700 -2.44563800
O 25.79228800 10.99817000 10.66767700
H 25.50423000 10.65402800 9.82201100
H 24.98683000 11.24358300 11.12256900
O 2.03927500 -5.83523200 -29.35731000
H 2.85795300 -6.30294000 -29.19124400
H 1.85063000 -5.36928600 -28.54292400
O -24.08676600 -15.66263100 2.93594300
H -24.49902500 -15.90702200 3.76472400
H -23.44154700 -16.34929300 2.76829700
O -0.91871400 12.64802700 -1.80138300
H -0.20470600 12.39122200 -2.38516900
H -1.71437100 12.54551800 -2.32324400
O -1.96493800 -13.35872100 6.71833300
H -2.55897500 -12.61492000 6.82052600
H -1.72337500 -13.35736600 5.79228700
O 4.54325100 -10.56094300 -13.51865400
H 4.22125300 -9.91540900 -14.14807000
H 5.41534500 -10.25316200 -13.27240100
O 0.68678700 17.61628800 -5.56561800
H 1.55601900 17.26922700 -5.36425600
H 0.25802900 17.71854300 -4.71613200
O -23.93536600 -8.28905800 13.53515300
H -24.41954300 -7.70976500 14.12384100
H -23.80473700 -9.09561400 14.03347200
O 13.93132600 14.84957400 1.52050000
H 14.03297300 15.37357700 2.31526500
H 13.75379300 15.48416000 0.82645300
O 8.33577600 14.93859600 11.52851500
H 7.50574200 15.06188300 11.06763900
H 9.00659000 14.98600400 10.84757600
O 18.08019800 -18.01303400 -6.99758000
H 18.32637800 -18.56808700 -7.73776400
H 17.34938600 -17.48404800 -7.31696200
O -27.53079400 3.35217500 8.13184600
H -26.71635700 3.39563300 8.63321100
H -28.16790700 3.84217700 8.65136800
O -2.65873900 -23.78043200 7.42234500
H -2.36672700 -23.08369700 6.83425300
H -2.31505400 -23.53896600 8.28228200
O 5.64738400 -8.51678600 26.48711800
H 5.91270700 -7.60710500 26.62367100
H 5.65309600 -8.91008600 27.35958500
O -2.96532900 21.90318500 1.68465900
H -2.36113600 21.50810100 1.05583400
H -2.93435100 22.84204700 1.50164100
O -18.24687800 -14.11321600 -9.65616500
H -18.04181100 -13.17812400 -9.66677400
H -17.41229800 -14.54784400 -9.48154500
O -11.23380700 26.39839700 8.19004700
H -11.00213700 25.51138100 7.91419500
H -10.64679600 26.97209300 7.69790000
O 8.95418800 -27.43708300 8.18287800
H 9.76701800 -27.05713100 8.51680100
H 8.26380700 -27.06817700 8.73351400
O -13.62364800 -17.32426900 -8.82318600
H -13.58459400 -16.68595600 -9.53564200
H -12.93398100 -17.95787300 -9.02022000
O 3.75053300 -8.57643200 8.80272000
H 2.91410000 -8.69002900 9.25442600
H 3.92378300 -9.42052600 8.38629900
O 13.48743700 -22.90997500 -4.21781600
H 13.32459000 -23.20948700 -5.11243000
H 14.03272400 -22.12930500 -4.31338000
O -13.57520800 13.52247400 -11.06155500
H -13.45660400 13.92522400 -10.20115500
H -12.68970100 13.41108500 -11.40707800
O -18.19627600 11.84276700 -14.66564700
H -17.76527200 11.80477500 -13.81162500
H -19.12176700 11.68096700 -14.48342900
O -10.99979100 -16.08308700 1.75374200
H -11.75011300 -15.74941000 1.26156400
H -10.59321000 -16.72981500 1.17724200
O 22.59354000 -11.97141500 -11.43328300
H 22.12997600 -12.78297500 -11.64074600
H 23.49850100 -12.12722600 -11.70288600
O -12.61688200 3.55170000 4.96442700
H -12.42448900 3.37941500 5.88630800
H -13.57089700 3.61142500 4.91746900
O 6.66562200 8.27985300 12.44216400
H 7.41004600 8.85731800 12.27207800
H 6.04309400 8.81623300 12.93274600
O 8.26027800 19.55721000 -0.16572300
H 8.86131700 20.08997000 -0.68676100
H 7.49730200 19.42325000 -0.72771900
O 16.84836200 -19.17281600 -14.33648900
H 16.64732500 -18.24906000 -14.18542200
H 17.52229700 -19.17172200 -15.01599300
O 10.04369900 6.80192100 -21.82734100
H 10.59242200 7.57833300 -21.93980700
H 9.14999300 7.10509100 -21.98638100
O -18.94850500 -20.50440800 -10.97850800
H -18.34725700 -20.64615000 -11.70992500
H -18.99254400 -19.55404100 -10.87468300
O 23.01154400 -13.47921500 12.69894500
H 23.68516700 -13.85223400 12.13004200
H 22.21881100 -13.45799000 12.16318300
O 7.54837200 20.43075000 17.65207200
H 8.24235700 20.74151400 18.23377000
H 6.73716200 20.56014000 18.14310400
O -19.21634400 8.40149700 -8.12245600
H -19.54984900 7.70542400 -7.55604800
H -18.44524800 8.74167800 -7.66901900
O -5.10899700 -0.43732700 -1.72137900
H -4.87950300 -0.29857500 -0.80233500
H -4.55784900 -1.16571100 -2.00705200
O 9.28644400 23.91074900 -13.99005300
H 9.59195500 24.81044700 -13.87271100
H 9.58750600 23.44335800 -13.21106400
O 4.22759300 7.61223700 -28.02720400
H 3.80177400 8.26022500 -28.58876700
H 4.90911700 7.22085800 -28.57334100
O 11.99440100 13.26972200 1.79055700
H 11.61153100 13.39596700 0.92220500
H 11.26957600 13.39890000 2.40199800
O 6.37354100 19.32008800 11.90971900
H 6.05002000 20.14527200 12.27161400
H 7.18641500 19.54891700 11.45939700
O 4.53572000 21.97780700 12.82336800
H 4.43131000 21.59967800 11.95005300
H 5.38256500 22.42307600 12.80085200
O -8.91157900 -3.59918700 4.33288700
H -8.97720700 -4.46334800 3.92609300
H -7.97673000 -3.47102600 4.49272400
O 13.00408000 21.90212500 -2.35893900
H 13.56869200 22.67370300 -2.40835500
H 13.16584100 21.53199700 -1.49132400
O 22.51275500 -2.22536400 17.37094800
H 22.62221400 -1.51934400 18.00822100
H 23.26013000 -2.80587500 17.51362000
O 2.70189600 22.23178400 -13.82766500
H 3.46476600 22.81020100 -13.82270400
H 2.44415300 22.15388700 -12.90928700
O -10.06611600 -18.02901500 -11.57301300
H -10.09591900 -17.69887500 -10.67485800
H -10.55908800 -18.84904700 -11.55196000
O 15.57531900 18.16711900 -18.09307000
H 14.74972200 18.53014800 -18.41425700
H 15.80290700 18.70333200 -17.33373100
O 0.59134900 5.53145300 1.21557100
H 0.50130300 5.10235800 2.06664700
H -0.16798400 6.11008000 1.14834500
O -19.76292400 -1.23454300 19.17757000
H -19.36556000 -2.09603100 19.04911200
H -19.57300300 -1.00739400 20.08765300
O 7.13299000 -21.10879500 17.82922900
H 6.46350700 -21.73093400 17.54410000
H 6.77301100 -20.24615300 17.62385200
O -11.25611500 -10.00779500 -0.15457500
H -11.40897800 -10.49760800 -0.96283100
H -10.49454100 -10.42508800 0.24765400
O 20.29786000 -12.65190700 -10.28596100
H 19.94496500 -12.15347900 -9.54867000
H 20.89482000 -13.28778100 -9.89198200
O -0.22599000 -28.50419400 5.31526000
H 0.25230000 -27.67524100 5.29001100
H -0.55840200 -28.57119400 6.21020700
O 0.04714800 24.60388100 17.16750400
H 0.51559500 25.06730000 16.47298100
H -0.85512800 24.53675100 16.85556000
O 8.66547700 -18.95332600 14.40176600
H 8.61933000 -18.01781400 14.59987900
H 8.63619800 -19.00597200 13.44662800
O 6.90048900 -16.58408900 8.99622100
H 6.84954900 -16.36540100 9.92688900
H 7.24496900 -15.79666300 8.57525700
O -20.47360100 0.37569800 13.99950000
H -20.21060200 -0.04560200 14.81797500
H -20.92101800 -0.30822100 13.50151400
O -1.56876900 -27.99456400 -2.05966500
H -0.98992900 -28.71860600 -1.82035400
H -2.08751300 -28.32423900 -2.79324300
O -7.83816700 21.99825500 -1.87282000
H -7.52999600 21.56383200 -2.66835100
H -8.69633700 22.35466100 -2.10181000
O -17.33007800 -9.44932600 14.36231300
H -16.51449600 -9.38838500 14.85998200
H -17.64204900 -8.54773100 14.28669700
O 21.05219100 -1.48382600 -12.49512200
H 20.52719500 -1.89492900 -11.80814700
H 21.94785500 -1.48737900 -12.15794100
O -5.50324800 19.59947800 4.57057600
H -4.96262100 20.10144500 3.96040000
H -5.78600900 18.83046400 4.07602500
O 14.46353500 -12.15550500 -9.06088600
H 14.35618300 -13.06211200 -8.77261300
H 13.61885000 -11.73947000 -8.88960300
O -3.59210500 27.12317800 -11.72689100
H -4.53693500 27.17577200 -11.87212600
H -3.21171700 27.03522800 -12.60066900
O -5.06852900 24.23935300 11.72408000
H -4.54068700 24.81944200 11.17504300
H -4.53404400 23.45399100 11.84004400
O -25.62101400 -8.24659000 -5.51106700
H -26.27897300 -8.65663800 -6.07277200
H -24.79871600 -8.68262400 -5.73381400
O 10.59838100 16.20228000 -21.46063400
H 9.97866300 15.48245500 -21.58047900
H 10.92686800 16.39507100 -22.33861200
O -13.84062900 -17.32317800 4.64719400
H -13.41726600 -18.11596500 4.97706600
H -14.28408000 -17.59513700 3.84388400
O 16.51669600 -12.96148200 -8.13870100
H 16.53180000 -13.20788900 -9.06369700
H 16.20989100 -13.74291700 -7.67919400
O -1.98749900 24.55937200 -5.70206600
H -1.22925400 24.75983600 -5.15303000
H -1.68600300 24.69563300 -6.60009200
O -5.60315100 28.38129400 -2.95820800
H -5.40327700 27.74081000 -3.64113800
H -6.13663100 29.04720800 -3.39165200
O -0.94914000 -23.47304200 -9.12976200
H -0.71021400 -23.93826400 -8.32786100
H -0.42933200 -22.66962700 -9.11424100
O 2.09029000 -22.72849800 -3.74387900
H 3.02413200 -22.88466900 -3.60206500
H 1.94212400 -21.82967700 -3.45047600
O 10.79659500 -12.48138400 -3.06083400
H 10.30381600 -13.21916000 -3.42058000
H 11.61048200 -12.45834400 -3.56380000
O 23.56666600 -14.26873700 9.26606600
H 23.00006800 -13.97845800 9.98109600
H 24.19978100 -14.85822700 9.67543800
O -6.63516700 12.83009600 8.97913800
H -7.29651000 12.15742000 9.14252300
H -5.83457600 12.49308200 9.38087400
O 7.78416400 -22.74899100 8.83594300
H 7.83543900 -22.05799000 8.17529800
H 8.06193600 -23.54529100 8.38354200
O -19.23259000 17.44128500 10.73163400
H -18.79903000 16.61276000 10.52636700
H -19.48558500 17.80523900 9.88343100
O 9.09293800 -9.51409800 -18.25824700
H 8.29926500 -9.10826100 -18.60744900
H 9.08308100 -9.31267000 -17.32270100
O -9.28690800 13.96324600 9.24317800
H -9.06266500 13.32377700 8.56689600
H -9.71701600 14.67851200 8.77486200
O 13.90972600 -18.84125500 -17.49530500
H 14.57021900 -19.53429700 -17.49737300
H 13.66045900 -18.73392600 -18.41305400
O 1.77332200 14.50962300 -6.81963200
H 1.70324600 13.84804900 -6.13117600
H 2.23077700 15.24444900 -6.41136500
O -8.55467200 2.07988300 -25.58833000
H -8.82926100 1.25341400 -25.98596300
H -8.82408100 2.75554000 -26.21028200
O -10.34727500 16.24827700 10.34306200
H -10.19324800 15.47958600 10.89256300
H -9.94937200 16.97687500 10.81922800
O 7.37056800 -12.42995300 -7.04972000
H 7.80437100 -12.75944000 -6.26243600
H 6.90018100 -11.64698300 -6.76404300
O 6.73678000 7.40770900 9.37830500
H 7.40244300 6.83406600 8.99832100
H 6.61011100 7.08354600 10.26981500
O 11.39163200 12.56149400 19.58436300
H 11.80982800 11.84678700 19.10387600
H 10.78311900 12.95673900 18.96033600
O -5.17989300 -0.16217500 25.45137900
H -4.72942000 -0.85413000 25.93597400
H -4.60067000 0.04395000 24.71794200
O 6.80595400 2.39762500 26.64605900
H 6.17176200 2.70474300 25.99795300
H 7.64465100 2.38498700 26.18525200
O -10.58192500 4.33294700 -27.73533200
H -9.90253900 4.48150200 -27.07735900
H -11.39870700 4.59648500 -27.31185600
O 5.53960000 9.92846400 26.77806600
H 4.60245500 9.73277100 26.78315800
H 5.67208700 10.52488700 27.51471000
O 21.28627800 -11.86907200 -15.85395900
H 22.00227600 -12.02931500 -16.46896300
H 20.51068900 -11.75106200 -16.40209400
O 2.53476700 -21.65501300 4.78104100
H 2.36091600 -21.41779500 5.69212000
H 1.80169700 -21.28992200 4.28583000
O -21.70017400 -7.43578300 12.57537600
H -22.50596300 -6.91880600 12.57655000
H -21.71531200 -7.91992700 13.40078100
O -11.87804300 15.68208800 -17.36329600
H -11.91673700 15.73396100 -18.31847900
H -12.77069100 15.47090400 -17.09035300
O -17.44686300 16.40311000 -3.68536000
H -17.07611600 15.58804600 -3.34656700
H -17.23697300 17.06377900 -3.02552800
O 8.93656400 15.51673700 -24.07005400
H 9.01946800 16.21454400 -23.41985900
H 8.58655200 14.76838200 -23.58696800
O 20.62357700 20.55029800 3.32780900
H 21.46476300 20.64101300 2.87977000
H 20.05517700 21.20490800 2.92243900
O -5.42359400 -20.01959900 -11.70529200
H -4.77424400 -19.76747000 -11.04853000
H -4.91438100 -20.37635600 -12.43285200
O 6.75723300 -26.09114000 4.96308900
H 6.45959100 -26.76809100 5.57112600
H 6.99542400 -25.34798800 5.51708100
O 12.93750300 -24.53902000 2.28730800
H 12.47771400 -25.08014800 1.64517300
H 13.15564700 -23.73243300 1.82067300
O -4.34043300 -10.93431400 26.95253600
H -3.69501000 -11.02934900 27.65322100
H -5.16653500 -11.22957400 27.33501900
O -25.42793000 -9.79331700 -9.71608900
H -24.73849400 -9.13030400 -9.67540600
H -24.96618600 -10.63156200 -9.70872700
O -5.12507200 4.18241400 13.39046900
H -4.53206800 4.75813700 13.87363600
H -5.63477500 4.76651900 12.82927200
O -25.86932100 12.96357900 6.96263100
H -25.32215800 12.29506600 6.54999900
H -25.98846000 13.63515400 6.29128200
O 10.22381700 22.44390000 14.84015700
H 10.78661200 21.95967200 15.44459700
H 10.04562500 23.27514700 15.27969400
O -2.32409900 10.01782700 2.37576800
H -1.69238600 9.33981800 2.61619000
H -2.72838200 10.28368400 3.20147500
O -9.66557000 17.45809700 -16.42157300
H -9.28340300 18.05558200 -15.77851700
H -10.23366800 16.87859600 -15.91426700
O -21.96961000 20.33038500 -0.50729500
H -21.83814800 20.41214200 0.43747800
H -22.64915800 19.66376600 -0.60603800
O 6.41450900 -18.37013600 10.82824800
H 7.26372800 -18.72491900 11.09191300
H 6.36428100 -18.52310400 9.88485200
O 1.08149000 -3.95289900 0.77898900
H 1.70087700 -4.03995300 1.50379400
H 1.29774500 -4.66822800 0.18111400
O -6.92880500 21.39916000 7.19704300
H -7.00864500 21.26869800 6.25196800
H -6.26723900 22.08336400 7.29761000
O -7.31463000 -18.12331600 -21.98392300
H -6.74700800 -18.76129300 -22.41676700
H -8.09727500 -18.07567100 -22.53266200
O -5.97267500 18.69903500 -5.31379400
H -6.65706800 18.89469400 -4.67357100
H -5.33833700 18.16017800 -4.84139000
O 27.01017000 11.75987900 3.35023300
H 27.40909000 11.46171400 4.16786500
H 26.08623700 11.52153100 3.42408400
O -2.28326500 -17.77604800 11.49243900
H -1.33456400 -17.66187500 11.43332400
H -2.55071600 -18.07965500 10.62513900
O 8.21310900 19.61480100 -10.48774600
H 8.69434100 19.98453900 -9.74729300
H 7.32041200 19.49072300 -10.16585500
O -7.71862200 6.64796500 -24.97600100
H -7.89515800 7.36658800 -24.36856600
H -8.56915500 6.43178400 -25.35780800
O 8.32942200 13.56453500 -14.89425100
H 8.61140600 14.10578200 -15.63188200
H 7.37319700 13.59921800 -14.91288200
O 15.45403000 16.85003100 1.47196800
H 14.76523400 17.41527900 1.12180000
H 15.67309500 17.22562600 2.32452600
O -2.43302800 -15.75789400 7.68926000
H -3.22993400 -15.29463200 7.94789200
H -2.11991700 -16.17819300 8.49002700
O 6.35934100 4.92739500 -3.91653500
H 7.12736200 5.49537300 -3.85244000
H 6.07238100 5.00063000 -4.82659400
O 22.68271500 -10.39658000 -14.86747700
H 22.27127400 -9.82233100 -15.51363200
H 23.42136500 -10.79644000 -15.32619900
O 1.29234500 2.53369200 -26.25886600
H 1.16173600 1.67456000 -26.66060800
H 0.77533400 3.13750600 -26.79180600
O -18.13171900 18.45185000 -8.73096900
H -18.84956300 18.08450200 -9.24702900
H -18.53873700 18.75053400 -7.91792500
O 12.04618900 -13.28167200 -14.23556200
H 11.49718200 -12.96920400 -13.51617600
H 12.62207100 -13.93650400 -13.84126400
O 3.77569800 -20.61346000 -1.70706600
H 3.69818600 -20.77757000 -2.64707700
H 4.05984800 -19.70224500 -1.63732100
O -14.70657700 -14.13041600 -14.77128100
H -14.72826600 -15.08536400 -14.83583800
H -14.76566600 -13.94409700 -13.83441900
O 11.99132900 19.60183500 14.67346400
H 12.70111200 18.98733800 14.86098300
H 11.77637400 19.99718300 15.51810100
O -1.97319300 29.88502600 1.68575600
H -1.25593900 29.88434100 2.31987600
H -1.90329400 29.04538700 1.23184200
O 18.40663400 4.22185900 -21.99706400
H 17.72544800 4.28322000 -21.32715200
H 18.78459300 5.09967500 -22.04711200
O -4.84308200 -18.26689100 9.33400500
H -4.53662600 -18.82731600 10.04714700
H -4.23135200 -17.53108600 9.31685500
O 14.49865300 22.22435100 -13.99538300
H 14.42549200 22.30843700 -13.04452000
H 13.65287900 22.51562300 -14.33559400
O 5.69257300 -15.13541200 23.13616600
H 6.25536400 -15.72702600 23.63598600
H 5.16032300 -14.68631600 23.79262600
O 24.31747400 -8.30878000 4.65099100
H 25.14580000 -8.59910000 4.26869300
H 23.77107300 -8.06666300 3.90350100
O -2.27201900 2.32667900 3.08785000
H -2.19919800 1.88027700 3.93164100
H -1.37802100 2.58809200 2.86797000
O 24.88816300 1.52233900 -13.00475700
H 24.59205900 1.69443200 -13.89877500
H 24.21031500 1.89739300 -12.44281900
O 12.18333300 -20.19713700 -17.34876900
H 11.91538100 -20.06383800 -18.25816200
H 12.44236800 -21.11711600 -17.29919400
O 26.34913100 0.16648600 4.41700600
H 27.05952400 -0.46138800 4.28405400
H 26.70318600 0.81621000 5.02398300
O -7.63810000 15.76067300 14.34599900
H -6.96112900 15.08750600 14.27446800
H -7.27362900 16.41630100 14.94033100
O 12.51533000 -13.83424100 1.13690200
H 13.33145400 -13.84637800 1.63725800
H 12.18412600 -12.94066400 1.22488600
O -13.07324200 -4.49801600 -24.57921300
H -13.48728300 -4.98871800 -25.28938400
H -12.67871800 -3.73553800 -25.00217300
O 28.37997500 -0.49667900 -9.71293600
H 28.06488000 -0.30279100 -10.59593300
H 27.66658500 -0.97937800 -9.29581000
O 16.14110200 6.22157600 -16.03463900
H 15.29627600 6.12903100 -16.47539600
H 16.78676700 5.91061000 -16.66893700
O 8.03112600 -17.57180000 -5.45492700
H 7.59026700 -16.94613200 -4.87982300
H 8.04650000 -17.15030700 -6.31401100
O -19.82897900 12.26471600 18.88047700
H -19.52381600 11.66951200 19.56543600
H -19.26305400 13.03335300 18.95007400
O 6.87810300 -25.73987100 12.07282100
H 6.46198700 -26.36256600 12.66919400
H 6.97336800 -24.93511800 12.58195100
O -17.88165500 11.48064100 2.86519500
H -17.77857200 11.91792800 3.71060400
H -17.64533900 10.56766600 3.02813100
O -21.73701800 9.09966700 -8.74195200
H -21.56155700 8.38143400 -8.13374500
H -20.93487400 9.62164200 -8.74683500
O 16.31895200 -10.76352900 22.44304100
H 15.98394300 -9.87421600 22.55902600
H 15.70399600 -11.32356500 22.91643900
O 14.37040700 -9.55896000 17.76098200
H 14.21527400 -8.80046100 18.32416500
H 15.32040400 -9.67477000 17.75759600
O 25.36322300 -10.14128000 9.70248500
H 26.13868700 -10.27965800 10.24660800
H 24.72125800 -9.73544700 10.28480600
O 0.46035400 -13.06767900 7.13439200
H 0.52121300 -13.73117100 6.44690600
H -0.01589500 -12.34001500 6.73488200
O 10.48151900 -0.53536000 -25.34214300
H 11.22987300 -1.02568600 -25.00139700
H 10.64880400 0.37433600 -25.09640400
O -19.73738300 14.27950500 6.68782600
H -20.09740200 13.80357800 7.43645300
H -19.06019000 14.84612900 7.05696700
O 3.12367100 -15.26045000 -21.96828800
H 3.26509200 -15.86397400 -21.23868500
H 2.96463400 -14.41007300 -21.55904000
O 7.68062000 17.10515700 4.30766400
H 7.23729500 17.55201900 5.02900900
H 7.71671800 16.18569100 4.57071700
O -12.00476300 13.67175600 -5.08023900
H -11.92872000 14.22265800 -4.30095200
H -11.12445900 13.32560900 -5.22572100
O -8.62741100 16.76248000 -11.15967100
H -9.54676900 16.55037100 -11.32200700
H -8.35326600 16.16189700 -10.46680700
O 8.82055100 -11.17242600 -19.67735200
H 9.77539500 -11.23001300 -19.63838500
H 8.53620500 -12.01261300 -20.03672700
O 15.77512100 12.65827300 -13.14203700
H 15.99839200 13.32083900 -13.79603900
H 15.60851300 11.86081000 -13.64424500
O 11.54186700 24.92911600 4.59341000
H 10.67475900 25.32964100 4.52809400
H 11.49479500 24.14582700 4.04554200
O 15.60705200 23.70516500 6.40126300
H 16.09317200 24.52331300 6.29693800
H 14.81754600 23.81695000 5.87201700
O 19.04695500 -10.14092500 15.94585500
H 18.91571700 -9.23991000 16.24167600
H 18.44289900 -10.66476500 16.47180700
O 25.47564500 3.47485500 -6.35471000
H 26.19682200 3.72451400 -5.77666400
H 24.68426300 3.59819400 -5.83086000
O -6.32078700 23.96431900 5.06733600
H -6.67730700 23.87473900 4.18334900
H -6.10477100 23.07239000 5.33884400
O -5.75308300 -16.45147900 7.18695900
H -4.95074800 -16.95692000 7.31867800
H -5.50671300 -15.54436500 7.36686100
O 10.13581700 23.92187200 1.88123400
H 9.73860500 24.15359100 2.72093100
H 11.01368200 24.30198500 1.90921300
O 5.68968400 -12.85310600 -5.37888800
H 6.07427800 -13.63659300 -4.98544400
H 5.05514200 -12.53866600 -4.73514800
O 3.15762300 -19.64145300 -21.76264600
H 3.22191900 -20.58070700 -21.58877700
H 2.66234100 -19.57397200 -22.57877000
O -11.75056900 -0.79185500 -27.20685300
H -11.41748900 -1.54212500 -27.69951300
H -11.00320000 -0.20022300 -27.12124700
O 3.91741500 -28.04186800 -6.72789200
H 3.87168800 -28.85828300 -7.22582400
H 3.62342800 -27.36398500 -7.33613900
O 8.49404500 -22.51554500 -13.72285400
H 8.21362300 -21.85608000 -13.08800700
H 9.36462400 -22.78566400 -13.43122800
O -14.27260800 21.35808300 2.35111600
H -13.68710900 21.39517000 1.59456000
H -15.08052300 21.78050900 2.06000400
O 15.63932900 22.18407600 -8.82281200
H 15.42627000 22.49991700 -7.94451100
H 15.71941300 21.23473300 -8.73197900
O 12.82373300 -13.85465300 -16.87649600
H 13.25675300 -14.34478400 -16.17733400
H 12.22925200 -13.25447400 -16.42672400
O -3.99873700 -19.78393100 14.85792000
H -3.79691700 -20.07261300 13.96769900
H -3.54063200 -18.94959100 14.95758200
O 19.38433400 -22.12166000 0.26067400
H 19.49768200 -22.79656800 -0.40881300
H 19.91114600 -22.41791700 1.00271100
O 8.94925000 -13.23551900 5.08563500
H 9.54870100 -13.59597900 4.43196200
H 8.10497900 -13.17245100 4.63937700
O 4.19920300 -9.23465800 -1.12588000
H 4.65523500 -8.59247800 -0.58163600
H 4.84427500 -9.51024000 -1.77692100
O -10.54348500 4.21101800 6.91540500
H -10.86220700 3.50925600 7.48330400
H -11.22571900 4.88159900 6.94361500
O 3.45490400 -22.74217100 -17.25437800
H 4.30380600 -23.09839600 -17.51711600
H 3.25870500 -23.16175600 -16.41689900
O -0.56205700 -19.00906700 -11.92107900
H -0.11967600 -19.52701100 -12.59383100
H 0.08261100 -18.91039300 -11.22066200
O 12.06834500 15.23393700 19.45176900
H 11.52381400 15.01127500 18.69647400
H 12.96877700 15.10286300 19.15519100
O 12.46881800 14.29246400 -11.46204000
H 12.60118200 15.15178600 -11.86279800
H 12.56495800 13.66691300 -12.17992600
O -12.48204900 -21.66701600 -3.07154900
H -12.18295100 -20.81743400 -2.74703000
H -13.12337000 -21.96641100 -2.42735400
O 0.41563000 -23.37368700 2.05217400
H -0.05675100 -23.82656300 2.75097400
H 0.73368800 -24.06934400 1.47700700
O 16.78328700 16.73970100 17.49805400
H 16.95064000 16.53711200 18.41865900
H 16.80963700 17.69495100 17.44590100
O -1.31081300 18.51469200 20.70715400
H -0.37062700 18.56993000 20.53521900
H -1.43484700 17.66821300 21.13611300
O -18.67734200 18.35635900 -0.50780200
H -18.33792800 17.87791900 -1.26440900
H -18.97584800 19.19519800 -0.85874500
O 9.28558600 -22.29593700 13.42217700
H 8.59803200 -22.28237300 12.75610800
H 9.96793700 -21.71536800 13.08564500
O 6.61553800 -26.16814300 -0.93570700
H 7.51196000 -25.97464900 -1.21056800
H 6.40181600 -25.49140900 -0.29362300
O -18.48563600 -21.93454100 -8.69795300
H -19.15398400 -21.29112300 -8.93435600
H -17.77185900 -21.78976600 -9.31882400
O -7.05946300 21.36474500 3.77631400
H -6.91742600 20.67244600 3.13047400
H -7.53403600 22.04939600 3.30519900
O 4.44754400 -2.04066900 2.69233700
H 4.94660500 -2.42176500 3.41501700
H 4.75276700 -1.13570900 2.63065900
O 7.75806500 13.04853900 6.70888100
H 8.05656600 13.92899200 6.93749000
H 7.37287400 12.70099600 7.51309500
O 20.38376000 -17.56485300 -10.98368700
H 20.92740000 -18.14476900 -11.51727400
H 19.49748200 -17.66846700 -11.32965400
O -8.46171300 12.94755100 20.19667100
H -7.91878400 13.36613400 20.86493700
H -7.87585300 12.33872600 19.74720800
O -5.65801700 -3.53827500 -8.69084400
H -5.85472200 -4.23394100 -9.31847400
H -5.77028000 -2.72377500 -9.18064300
O -16.67394300 10.42131700 22.59598700
H -15.94369800 10.37256500 21.97879400
H -16.68377600 9.57133000 23.03569400
O 18.59494100 -21.82140300 -4.46403900
H 19.16546000 -22.09299100 -5.18328100
H 17.71485800 -21.80257700 -4.83956200
O 13.67550900 22.97102300 -9.42602400
H 13.16768800 22.17184600 -9.28461600
H 13.24914900 23.63457100 -8.88395400
O -13.01463100 -18.82461200 18.33334000
H -13.65253200 -18.73567400 19.04167300
H -12.43982500 -19.53957500 18.60599700
O 17.41570700 19.41409200 -14.50156000
H 18.26080200 19.15235700 -14.13567500
H 17.38666500 19.01255900 -15.36980200
O 9.78021200 22.30133600 7.55420000
H 9.85747500 21.61625600 8.21847200
H 10.49977900 22.90540300 7.73652500
O 3.72889300 -21.91201300 18.67357400
H 3.18595000 -21.55835700 19.37834500
H 4.16382800 -22.67451400 19.05481000
O -7.05585600 5.79940200 24.04282500
H -8.00638900 5.88311600 23.96509200
H -6.72330800 5.91662200 23.15311300
O -3.34783800 12.55705100 8.66440300
H -2.44840500 12.37388000 8.93649100
H -3.71719400 13.08694300 9.37059600
O 11.82745600 -14.22621300 -9.05380700
H 12.62724400 -14.40554000 -8.55909100
H 11.64310200 -13.29989700 -8.89931000
O 11.13583700 -13.55845200 -11.03269300
H 10.53989100 -13.00303600 -11.53560700
H 11.50560100 -14.16733100 -11.67180000
O 26.96732100 3.32630100 4.97289700
H 26.38253800 2.88732500 4.35492400
H 27.36331500 4.04081900 4.47432900
O 1.45217400 -6.53910400 20.26476500
H 2.02430600 -6.96546600 20.90307600
H 1.18817600 -5.71756900 20.67865100
O 1.94568500 -23.11803500 -6.81757400
H 1.38000600 -23.81433700 -7.15183900
H 1.72313400 -23.04203000 -5.88988200
O 10.67746900 1.36309500 5.55142400
H 11.05564100 1.96276200 4.90803700
H 10.58290400 0.53075700 5.08861900
O 11.60683400 21.58806400 -10.72080500
H 12.00866000 20.74050100 -10.91246700
H 11.76747400 22.12017100 -11.49989000
O -0.21242500 -15.93458700 20.63220800
H -0.12788300 -15.09138500 20.18675900
H -0.32077500 -16.57585400 19.93010100
O 5.41806600 -6.43844700 -9.21566800
H 5.53269100 -5.49377200 -9.11072900
H 4.72181600 -6.67310300 -8.60240800
O 4.19267300 -2.56968200 9.22170200
H 3.76327600 -1.71475900 9.25757700
H 5.12984300 -2.37742200 9.24751300
O 1.91653400 14.68425700 -22.92041100
H 1.43324400 14.95677100 -22.14020000
H 2.28383100 13.82893600 -22.69807000
O 26.82448500 -10.71251000 -5.61799500
H 27.65369500 -10.24930200 -5.49795000
H 27.06315400 -11.63774700 -5.67176600
O 16.40597700 5.93915600 -19.44073600
H 16.85384100 6.69607600 -19.06251500
H 16.03886800 5.46910000 -18.69227300
O -8.35425600 27.13644100 9.68622200
H -8.75484800 27.27696600 8.82811900
H -9.03567800 26.71816100 10.21217200
O 17.13605100 -4.48796600 19.38160200
H 16.97631100 -3.64598900 18.95484700
H 17.62379800 -5.00278100 18.73896200
O 1.44311900 9.43560600 1.31347200
H 1.04496300 9.33310200 2.17806800
H 2.38649600 9.39145300 1.46841200
O -27.37337400 -10.53369800 -3.82827400
H -27.26389700 -9.95774700 -4.58514700
H -27.42351900 -11.41663000 -4.19410800
O 0.42519600 24.76572800 -7.24031100
H 0.42276000 24.03087800 -6.62667200
H 0.34236700 25.54611000 -6.69253400
O -16.63656400 -16.55612000 -18.39465300
H -17.50839500 -16.35752200 -18.05255600
H -16.43257500 -17.42956200 -18.06087800
O -11.64594700 -9.95073600 -22.40655700
H -10.91481500 -9.35069100 -22.25838700
H -12.42119200 -9.47467600 -22.10943900
O 12.51767400 23.02268500 14.60429500
H 11.94081500 23.61927800 14.12693500
H 13.29321500 22.93228800 14.05086800
O -1.62047400 -25.58226000 12.06428700
H -2.22163100 -25.43110100 12.79389200
H -1.31576700 -26.48248200 12.17685300
O 8.59510400 2.02980300 5.79289300
H 9.05879800 2.86654200 5.75524300
H 8.60425200 1.70090300 4.89419400
O -6.49466700 -17.44065900 3.04443300
H -7.07024900 -17.52325900 3.80498900
H -6.93817600 -16.82217400 2.46418100
O -16.69356300 -7.56514800 16.07304300
H -16.91244200 -7.99721600 16.89885800
H -17.42330100 -6.96942800 15.90417000
O 5.83496800 -26.61011000 9.97928500
H 6.66535300 -26.13735600 9.91990800
H 5.89318600 -27.29729300 9.31572800
O -17.71212500 10.82135400 -9.33683800
H -18.25814700 10.74456600 -8.55419700
H -17.56111500 9.92062300 -9.62283900
O -7.47390600 -22.05689600 -3.67360800
H -8.14367100 -21.59675800 -3.16739700
H -6.93319400 -21.36550600 -4.05508900
O -18.66085900 -13.20633400 19.42594600
H -17.97211100 -13.83758700 19.63501100
H -18.30806200 -12.35752700 19.69236400
O 0.63736800 23.43785500 -13.37642800
H 0.12569300 23.19210500 -12.60548200
H 0.22921200 24.24121900 -13.69881300
O -5.68965800 15.26216200 -7.92074000
H -4.98583000 15.68102100 -8.41646600
H -5.92951100 15.89734200 -7.24625200
O 7.39628300 -8.76429600 1.99415100
H 7.47504200 -9.24383100 1.16928400
H 6.56360700 -8.29685700 1.93037200
O -6.20289400 -23.45844900 -2.48804000
H -7.09331400 -23.62460200 -2.17802700
H -5.64306400 -23.61166700 -1.72709800
O 2.08522200 7.23896400 2.53687100
H 2.34186600 7.52778200 3.41281700
H 1.13082300 7.17467500 2.56699100
O 22.72397800 -15.76243000 11.62605000
H 22.08890900 -16.30556500 12.09322600
H 22.83579900 -16.18773300 10.77603200
O -7.08135300 10.26224000 1.77413400
H -6.85833000 9.72243800 2.53270900
H -6.24782400 10.42686800 1.33363100
O -6.64193200 -9.14886800 -10.43251600
H -6.13325000 -9.40717100 -9.66369500
H -7.37119600 -8.63515100 -10.08583800
O -15.49166400 -18.04789400 -13.93333100
H -16.38023200 -18.32042100 -14.16297500
H -15.10023400 -17.75944200 -14.75764700
O -7.93375300 20.71994800 -7.59765100
H -7.33671200 20.68854900 -8.34539300
H -8.80662500 20.60414600 -7.97262000
O 5.37326300 17.55058200 -19.02299000
H 6.04699500 17.98662900 -19.54501600
H 5.60464800 17.73811400 -18.11347900
O -6.74161200 6.72286800 -7.54856300
H -6.49355700 7.33751100 -6.85773400
H -7.32638800 6.09559200 -7.12373600
O -4.43284800 -20.82308700 -21.13700000
H -5.21801800 -20.32853800 -21.37256800
H -3.72838700 -20.42905000 -21.65118600
O 8.13251400 -8.53694200 27.15012400
H 8.09159700 -7.59826200 26.96636800
H 9.06572700 -8.73297000 27.23139100
O 23.50288900 9.44906100 -6.92237100
H 22.85915500 9.81144600 -7.53134200
H 23.67484800 8.56343700 -7.24177400
O -15.03893600 4.60310600 15.67945500
H -15.40898500 4.66876200 14.79893600
H -14.09529000 4.51617700 15.54569700
O -28.78931100 -5.21562500 0.97591500
H -28.98368000 -5.17452700 1.91244800
H -29.41924700 -5.84175200 0.61945900
O -0.11353500 0.19354700 0.08649400
H 0.48037400 0.62369000 -0.52898200
H 0.41769200 0.02067100 0.86355800
O 23.72652400 -1.57309200 -17.70906300
H 23.26926300 -1.86996900 -18.49604300
H 23.06600000 -1.10153600 -17.20185500
O -9.32168500 11.32237400 3.55973200
H -8.79881200 10.57606000 3.26616700
H -10.22951500 11.02351000 3.51031000
O -13.85334300 6.29815100 1.17877900
H -13.02279700 6.77048000 1.11828000
H -14.20013100 6.29166200 0.28680800
O 3.40989600 21.75012200 3.26638700
H 2.72633800 22.28403100 2.86110600
H 3.17768300 21.71288500 4.19407600
O 15.80640500 -15.32367600 -2.74971700
H 16.10574400 -14.67424300 -3.38626700
H 15.78985600 -16.15153700 -3.22960000
O 2.28732100 26.20248900 -1.85916600
H 2.14672900 26.89728500 -1.21569600
H 1.52542300 25.62942200 -1.77536500
O -0.80822200 4.14025900 -8.33187200
H -0.22009600 4.48880000 -7.66165600
H -0.40736300 4.38625800 -9.16536700
O -9.77505100 -13.62594400 24.85998400
H -9.43091800 -12.89622800 25.37539600
H -9.05154500 -14.24949600 24.79966200
O 4.04166500 -22.37438800 6.74071200
H 4.08028600 -22.77682700 5.87289100
H 4.30349300 -23.06716100 7.34687000
O -7.19347700 -0.92564300 -9.22615300
H -8.07958400 -1.24061000 -9.40551700
H -7.12943200 -0.08991400 -9.68807600
O 8.35136500 15.83339600 23.35750800
H 7.76122600 15.50439700 24.03578400
H 9.22954800 15.60305200 23.66024900
O 1.38608300 22.16811100 -10.98151300
H 1.69813500 21.70125200 -10.20612300
H 1.17297700 23.04817200 -10.67168200
O 23.35673100 -15.88936900 -8.86554200
H 24.11353100 -15.80944100 -8.28465600
H 22.60120000 -15.67379900 -8.31908100
O -2.25581100 -21.58218700 -13.57746300
H -2.83421000 -20.90294100 -13.92479700
H -1.46873800 -21.11667900 -13.29508900
O -12.76634700 -25.78005500 2.61739200
H -12.39330800 -25.17992200 3.26333600
H -12.41402700 -26.64005600 2.84583300
O 13.66709500 -10.65501200 -16.45077700
H 12.84317800 -11.14258100 -16.45060300
H 13.60026500 -10.05547500 -15.70780600
O 11.02821400 -3.77444200 2.55026500
H 10.31372400 -3.53126800 1.96125400
H 10.86938500 -4.69316700 2.76621400
O -3.88048000 15.54788800 22.73937800
H -3.41768700 16.34704000 22.99184400
H -3.38451700 14.83622200 23.14369200
O -9.73781500 -18.50772100 17.46541300
H -9.14032500 -18.01118400 18.02489400
H -10.46687300 -18.75069900 18.03581100
O -11.83528500 -24.20689500 10.90665300
H -10.92638900 -24.25223900 11.20400000
H -12.18911200 -25.08330600 11.05707200
O -13.78216200 23.33936200 -6.61025700
H -14.48671300 23.97995800 -6.70928400
H -13.58609000 23.04726100 -7.50028500
O -1.31044200 -23.60032200 14.65470600
H -0.86220700 -23.38956200 15.47399100
H -0.98638200 -24.46721500 14.41098800
O 3.47780600 -3.38044000 26.44689600
H 4.00433300 -3.21877300 25.66382900
H 3.50366100 -2.55867900 26.93675200
O -19.45560300 12.98602700 -0.88656100
H -19.13231200 13.74110300 -1.37840000
H -19.50931600 12.27743100 -1.52759400
O 22.80345300 -2.71135500 9.28975400
H 23.25595700 -3.30963900 9.88461400
H 22.46802700 -2.01168000 9.84998700
O -4.36269700 -6.79236400 -0.34213100
H -3.62519900 -6.70029800 0.26134400
H -5.13983400 -6.61553100 0.18768500
O -0.22774900 -15.59848500 24.80959500
H 0.14471400 -14.80823200 24.41801600
H 0.42830300 -15.89541100 25.43995000
O 4.86584400 -16.88167200 20.80703500
H 5.80454600 -16.76823800 20.95715100
H 4.65262800 -17.72781900 21.20008800
O 15.34659500 -23.43209400 3.70617600
H 15.28996700 -22.69104800 4.30967200
H 14.46580300 -23.80606600 3.68981800
O -14.40344400 11.90567400 4.29598500
H -14.81546900 11.37834700 3.61135100
H -14.23574300 12.75472600 3.88744500
O -1.92727400 -13.75707200 -10.18758600
H -1.80241800 -14.59788500 -9.74712400
H -1.23914300 -13.19042200 -9.83930600
O -0.30531500 -23.84194400 -5.51961200
H -0.39994700 -24.58560600 -6.11507200
H -1.04541200 -23.91154800 -4.91684400
O 26.10293600 14.52268900 0.13820200
H 26.35483400 13.83466500 -0.47802300
H 25.82726400 15.25725000 -0.40983200
O -8.80623100 -18.66295700 -16.69450900
H -9.16098600 -17.88057500 -16.27191100
H -9.25068000 -18.71047300 -17.54075000
O -0.20009600 6.07690800 8.09721700
H 0.55342400 6.19299600 8.67626200
H -0.91923000 6.53520200 8.53164700
O -9.72174900 -21.32952900 6.17341000
H -9.85644400 -21.88803000 6.93924000
H -9.15732500 -20.62020800 6.48034000
O 1.66068400 9.82912900 -27.77211000
H 1.82356600 9.21764700 -28.49052600
H 0.99896900 10.43405100 -28.10695200
O 13.37565700 -5.01889400 24.89284800
H 12.85960800 -4.77898400 24.12297900
H 14.25140200 -5.20633500 24.55542500
O -14.47259600 17.00455600 11.95017100
H -14.74432300 16.46423400 12.69231400
H -13.56384800 17.24077300 12.13536400
O -25.65353100 -2.44732700 -13.79145300
H -26.04129100 -1.89256800 -13.11436600
H -25.66295200 -3.33067200 -13.42331000
O 2.25613900 -23.37923600 17.76330000
H 2.07626400 -23.36386200 18.70349800
H 1.88411200 -24.20475700 17.45341700
O 15.40297900 22.69919000 1.67341100
H 16.18808300 22.94088300 1.18172200
H 14.87715400 23.49804900 1.70875100
O -14.62862800 -0.68265600 20.95508700
H -15.30810100 -0.52608500 20.29906600
H -13.80586100 -0.46916700 20.51532100
O 12.01580400 -5.72373600 -19.11116900
H 12.13294800 -6.39243700 -19.78620900
H 11.25230900 -5.21954200 -19.39184800
O -5.10798800 29.22703300 1.77623800
H -5.15288400 28.75235800 2.60643600
H -4.24809900 29.64716100 1.77732700
O 2.61292700 11.10928200 9.64901500
H 2.58329200 10.48069000 10.37051000
H 2.99517900 11.90144300 10.02621800
O -5.85080700 -25.04216300 7.59366800
H -5.51811800 -24.89420200 8.47909800
H -6.33491700 -24.24615800 7.37474100
O 29.02258200 -1.90985900 -0.70888200
H 28.49618800 -1.13894700 -0.49635900
H 29.93084700 -1.62270000 -0.61662800
O 8.06380300 11.70669200 1.04174500
H 8.20941900 12.22242100 1.83508100
H 8.43645600 12.23135100 0.33338100
O -6.47979500 -19.06738200 21.01568600
H -6.49799300 -19.17215700 20.06423800
H -7.03277300 -19.77187200 21.35306700
O 0.99184600 7.90514900 6.81287600
H 0.33802700 8.11069100 7.48133300
H 1.76231100 7.61511600 7.30091400
O 27.50013900 10.80138300 1.22534800
H 28.13742700 10.38633300 0.64383400
H 26.72211500 10.93584900 0.68450100
O -0.86466700 -16.24534400 -19.03422000
H -1.40771400 -16.13789500 -19.81532000
H -0.10401200 -15.68372500 -19.18221800
O -10.27775400 -17.79337700 13.72191300
H -10.77498800 -18.53156400 14.07461800
H -10.61640900 -17.66747000 12.83569800
O 10.36188800 -15.37564000 11.02907100
H 10.41605500 -15.82900200 11.87055300
H 11.27082000 -15.23175900 10.76628500
O 14.89769000 3.28455800 -19.53398900
H 14.97950100 2.44808100 -19.99243700
H 14.59299800 3.90236300 -20.19836600
O 17.46318700 2.12196700 -21.64295800
H 16.83645700 1.81471400 -20.98769700
H 18.30156400 2.16389900 -21.18330100
O -21.10825200 -2.58227800 20.31279500
H -21.01618600 -2.50132600 21.26228500
H -22.04196000 -2.73289000 20.16643200
O 3.00805500 19.78592000 -6.71105000
H 2.07008400 19.82860800 -6.89800300
H 3.42771600 20.23232200 -7.44625500
O -28.93910700 5.45328700 2.62707700
H -28.18901600 5.34827000 3.21265100
H -29.19131400 6.37275200 2.71009400
O 0.72821700 3.34820600 -1.70722000
H 0.29541700 4.18446900 -1.53427500
H 0.44993100 2.77324400 -0.99455500
O 15.36844400 23.19077600 -11.22591700
H 14.54526200 23.67017200 -11.32137500
H 15.11186300 22.30956400 -10.95471800
O -10.15715000 11.42626800 8.50401100
H -10.35006000 10.49414900 8.40152800
H -10.43341000 11.63986800 9.39506200
O -7.79044000 -20.62428100 -7.15061600
H -7.84381300 -19.98858700 -7.86448400
H -7.21836000 -21.31778600 -7.47877900
O -12.97248200 13.61461900 20.75013400
H -13.57125500 14.31471100 20.48955200
H -12.48565700 13.39653200 19.95555500
O 0.27187400 -21.10350200 20.50933700
H 0.94273400 -21.77901200 20.61031400
H -0.49163500 -21.44073100 20.97757600
O 22.94473600 -9.84809900 -9.88881300
H 23.57031700 -9.97422500 -10.60246800
H 22.70969000 -8.92113800 -9.92640600
O -25.20969500 4.72688600 -1.90965200
H -25.79370200 5.26541900 -1.37534900
H -25.45505500 4.91839200 -2.81466100
O -7.98227200 9.55047700 -7.41918300
H -8.38952400 10.14342800 -8.05093900
H -7.28937500 9.10621000 -7.90748400
O 6.84994100 13.70732600 -18.93615900
H 7.01045600 13.58840300 -17.99986100
H 5.91313000 13.54750600 -19.04911400
O -3.22847500 -23.29789000 -9.24851600
H -2.97991000 -22.60316400 -8.63848900
H -3.51258700 -24.02439300 -8.69408700
O -14.23207400 12.30053600 -8.60014500
H -13.79290300 11.92007800 -9.36102700
H -14.99164000 12.76060400 -8.95695600
O -11.56183400 -9.87644000 25.18213800
H -11.40847800 -9.65265000 24.26400800
H -10.98809900 -10.62283200 25.35431000
O 19.49757400 -14.24026400 3.22456500
H 18.78555600 -14.35972400 3.85331100
H 20.29915900 -14.37737900 3.72912300
O -21.97381000 -4.86562400 13.16036000
H -22.83855700 -4.87063600 13.57115200
H -21.37712000 -4.55908300 13.84293600
O -6.93475000 -21.60148700 -11.92351700
H -6.50083300 -22.13923900 -12.58616400
H -7.82796600 -21.48355200 -12.24627700
O 2.75050200 -29.55807000 -4.33372000
H 3.30607300 -29.37949900 -5.09267600
H 1.87555400 -29.27075200 -4.59416300
O -9.99316200 -4.73523400 1.74106000
H -9.87963000 -4.33659800 0.87806400
H -9.19797400 -5.24839300 1.88340300
O -0.06216800 10.62535700 3.56811700
H -0.78137700 10.55747200 4.19636200
H 0.73034700 10.46754100 4.08088600
O 6.71213300 -6.04436200 -18.36789800
H 6.88004900 -6.48789600 -19.19954900
H 6.02615800 -6.56115300 -17.94566200
O -22.90894400 9.71125000 1.88181100
H -23.54960200 9.00018000 1.90415800
H -22.91011700 10.01728600 0.97502700
O -24.68658700 9.47611200 -12.27742900
H -25.19121400 10.13447200 -12.75542000
H -23.77809700 9.77184900 -12.33312500
O -3.46051300 -3.50608600 -8.59396600
H -3.25431800 -2.78245700 -9.18591700
H -3.63269500 -4.25323600 -9.16671100
O 2.59516600 -16.58036500 -18.87048900
H 2.10603300 -17.40323000 -18.85617000
H 2.06406800 -15.98570800 -19.39986200
O 6.32126900 1.07164100 29.30679900
H 5.70534100 1.39267400 28.64791200
H 7.07338200 0.75276200 28.80824100
O 6.27879300 -6.26261900 -14.40380300
H 6.52526400 -5.41757200 -14.02736000
H 5.67141300 -6.05045100 -15.11231600
O 18.04824600 23.95938500 -0.48887100
H 17.46314600 24.39340700 0.13229300
H 18.26882200 23.12332400 -0.07866900
O 5.81904400 13.51223500 -23.76437500
H 6.76467100 13.48217600 -23.61792600
H 5.44240700 12.98546800 -23.05969300
O -10.59948800 5.43083700 18.56884000
H -10.20375000 4.87843200 19.24323000
H -9.86375800 5.88130700 18.15448000
O -7.63735100 11.59093600 -20.33251600
H -8.44805600 11.88325700 -20.74949100
H -7.61818100 10.64336500 -20.46540400
O 6.01841500 28.55261500 -6.96855200
H 6.09962600 28.74953200 -6.03517600
H 6.89544300 28.28476100 -7.24240100
O 11.50542900 -20.58542500 7.86713200
H 11.79804000 -21.14064500 8.59009200
H 12.26484100 -20.51012800 7.28960300
O 1.61483800 16.84623000 -23.50241400
H 1.07484800 16.42515900 -24.17149600
H 2.07167600 17.55146000 -23.96052700
O -9.35220900 22.23025500 -12.02441500
H -9.39094300 22.90382100 -12.70365700
H -9.86792700 21.50130100 -12.36876600
O 6.52340800 27.12094900 11.04312600
H 7.40719600 26.81061200 11.24104300
H 6.57331100 27.45641700 10.14820300
O -3.25620100 -7.78413600 -26.46010100
H -2.32493900 -7.94800700 -26.31023100
H -3.51698000 -7.18197400 -25.76345800
O -21.61686400 12.99021300 -1.34279000
H -21.53761200 13.65870600 -0.66205700
H -21.62013000 12.15680500 -0.87232500
O -10.86587200 23.42612400 15.27086700
H -11.71102000 23.29884100 14.83949000
H -10.32088600 23.87052900 14.62170500
O 17.27738800 -18.65571400 -11.51503700
H 16.65941500 -19.04087400 -12.13658500
H 17.34299400 -17.73534900 -11.76908800
O -27.77165100 5.96365700 -9.65363800
H -27.93570700 6.40805500 -8.82167800
H -26.83172700 5.78352700 -9.65709500
O -24.24136800 6.80998100 10.29970900
H -23.64251900 6.33520100 9.72305900
H -24.99519200 7.02529800 9.75079700
O 19.55718200 14.78216000 -8.21398100
H 18.68868700 14.69089200 -7.82162000
H 19.57511300 14.14410800 -8.92706200
O 2.46560400 17.64844700 0.13434100
H 3.03124600 18.06651400 -0.51514500
H 1.58517800 17.96862700 -0.06123600
O 3.62551800 -11.55211200 -18.42008000
H 3.36921700 -12.31636100 -17.90355700
H 4.28174500 -11.87802600 -19.03576100
O -16.08936600 0.85672300 24.93685200
H -15.36648300 0.93995900 24.31469900
H -16.43149300 1.74463000 25.03925800
O 3.21639100 -14.35310000 -11.81067500
H 2.54814100 -13.95616700 -11.25170400
H 3.56831700 -15.08037900 -11.29771300
O -3.76173300 2.70499800 -25.18376300
H -3.77480900 2.88244600 -24.24307000
H -3.37969200 1.83136000 -25.26572900
O 6.27123300 6.61777900 -23.78840100
H 6.56656000 5.89027100 -23.24060900
H 6.01386800 7.30327200 -23.17213900
O 8.69249400 -1.95239300 -6.77226600
H 8.20318700 -1.47489600 -7.44244300
H 9.47093400 -2.28151900 -7.22129300
O 1.47100100 13.78004000 17.89279700
H 1.77888100 13.25329200 18.63056900
H 2.23051900 14.29591300 17.62275300
O -6.70666700 17.07877500 -21.24173800
H -7.53162500 16.59297900 -21.23888800
H -6.03043100 16.41944400 -21.08712700
O -12.16895000 15.49287700 21.70587000
H -11.67774900 15.49551400 20.88411800
H -12.49527400 16.38738300 21.80224100
O -6.33248100 7.48707400 1.62049300
H -5.64746900 6.84596400 1.42997100
H -6.11731300 8.24732800 1.08046200
O 18.06158000 -3.30125200 -22.87894900
H 17.82002400 -2.56429300 -23.44029000
H 18.40274900 -2.90183400 -22.07895800
O -2.77918600 4.43385100 -1.94599900
H -1.88260500 4.48522100 -1.61423800
H -3.33528200 4.54227100 -1.17468900
O -9.54443300 -19.11847400 -1.42341700
H -9.58476700 -19.18751800 -2.37744400
H -9.13861600 -18.26855200 -1.25353100
O -5.73718400 19.45645200 12.84878000
H -5.99574000 19.32391400 11.93656000
H -6.31912800 20.14315300 13.17389500
O -17.25815800 22.38772400 -9.98674300
H -17.39504600 22.69068200 -9.08894500
H -17.97247100 21.77267200 -10.15222700
O -12.76974700 4.21720900 21.63670900
H -12.66180300 4.73454300 22.43500400
H -12.23046900 3.43817200 21.77160300
O -9.14766100 -12.43634200 -4.66489200
H -10.04987500 -12.12062800 -4.71872700
H -8.60505800 -11.66248900 -4.81539200
O -10.98418200 24.99385300 10.04539800
H -11.87035400 24.73589200 9.79100300
H -11.06261800 25.90530200 10.32651400
O 19.24265200 14.09402900 8.26447700
H 19.24235400 14.86551000 7.69757300
H 19.55208200 13.37867900 7.70910000
O -6.62569600 13.83964400 16.07185300
H -7.55405000 14.06571200 16.13196200
H -6.56974200 13.21204700 15.35150000
O 11.47209000 -27.22195200 5.23056100
H 12.06593700 -27.09845100 4.48984700
H 10.68305100 -27.61055700 4.85330800
O 5.24439000 19.71079700 2.84951400
H 5.08700300 20.34097200 3.55284300
H 5.92737800 19.13047000 3.18516900
O 14.17167000 -21.93393600 2.57358500
H 14.97972400 -21.42402000 2.51361500
H 13.58232800 -21.54071500 1.93017900
O -8.09660300 -6.28035300 -23.52877400
H -7.22152800 -6.51586100 -23.83754800
H -8.62759100 -6.20699000 -24.32160800
O -0.11432100 15.59257700 24.52308400
H 0.24750900 15.02057400 23.84599300
H -0.63476900 15.01603400 25.08223400
O 5.45459200 -6.26880700 24.00131700
H 6.05986900 -6.61169400 24.65906400
H 5.94844600 -6.27792200 23.18159600
O -15.79193500 14.62307700 -13.07813700
H -16.67048300 14.97245300 -12.92763400
H -15.76569700 14.41233400 -14.01131200
O -24.30357800 -8.28697400 -0.35228900
H -24.80508300 -8.91268500 0.17072200
H -24.88563200 -8.04279900 -1.07167000
O -8.41902200 8.57055200 11.30500900
H -8.88222700 9.32431000 11.67086600
H -9.09920400 7.91758400 11.14098800
O 6.68281600 3.32046900 29.05730300
H 6.79591900 4.25937900 28.90825200
H 7.46326500 2.91414000 28.68085500
O -3.68779400 -6.84213500 28.92493400
H -4.61415400 -7.04523100 28.79389400
H -3.41540800 -6.39875400 28.12173100
O 2.45166900 7.81438100 28.26595400
H 2.58992800 8.70297100 28.59436700
H 2.11645800 7.32267000 29.01546800
O 0.07307600 -1.06867400 22.74091000
H -0.59295400 -1.49268500 23.28237200
H 0.90643000 -1.28438800 23.15912800
O 13.00268400 19.17028500 8.99235600
H 12.72466000 18.52827100 8.33884000
H 12.40517500 19.04769300 9.72983200
O -5.54194500 -23.59762900 5.42849700
H -5.96003100 -24.33511600 4.98366200
H -5.94928300 -22.81788600 5.05167700
O 5.40273700 9.41861300 -27.58410700
H 5.48155900 9.50084000 -26.63353500
H 4.78209200 10.10029400 -27.84106500
O -2.94895200 8.96619300 26.32266300
H -2.27376400 8.32423900 26.54307100
H -2.90193400 9.05836400 25.37123800
O 2.73922200 -14.69281900 -17.75285700
H 2.19233600 -14.06594900 -17.27903000
H 3.46344800 -14.88844600 -17.15859700
O -5.77527600 17.04198700 10.37063200
H -6.34583600 16.75455700 11.08365900
H -5.68397500 16.27705600 9.80277600
O -1.32117600 -18.01508400 -5.19718300
H -1.68942900 -18.13779900 -6.07233700
H -1.53906500 -18.81681000 -4.72212800
O -4.38901700 9.37091700 1.83951400
H -4.73109600 9.19378400 2.71596600
H -3.90614500 8.58079200 1.59774100
O -28.26409100 6.11046100 5.36695700
H -28.69123300 6.17502600 6.22132300
H -28.70586800 6.75934500 4.81950800
O 5.48928200 2.26361600 -26.32083900
H 5.18095500 1.38211900 -26.53169600
H 6.05535800 2.15197400 -25.55728700
O -14.98233600 -2.53159600 -23.36430600
H -14.34363500 -2.01747000 -22.87004100
H -15.72779000 -1.94494000 -23.49099500
O 3.37158900 -19.09336200 -10.69373600
H 4.11858200 -19.51920000 -11.11471900
H 3.74925900 -18.57945100 -9.98017000
O -6.85922700 -17.53875900 -11.48658000
H -7.51439600 -17.30980900 -10.82711200
H -6.22491600 -18.08737500 -11.02550900
O 3.74727600 1.49595800 -6.51087200
H 3.54937800 1.41071500 -5.57806300
H 4.41895700 2.17588900 -6.56044400
O -20.94604400 -12.51063500 -7.10075000
H -21.83585700 -12.71362400 -6.81163000
H -20.52518300 -12.10670200 -6.34204700
O 21.70489700 -5.67018000 -14.18335600
H 21.30451500 -5.30371600 -13.39471200
H 21.48252400 -5.05562800 -14.88249400
O 14.57844300 -7.65828800 -14.65800300
H 15.13120700 -8.43807200 -14.71231600
H 14.36708600 -7.56873600 -13.72890400
O 4.56291600 21.87424800 -15.57953500
H 3.65034800 21.97670400 -15.85024800
H 5.07645000 22.05283400 -16.36713000
O 10.31767400 -26.55854100 -9.39171300
H 10.32942300 -26.20923800 -10.28301100
H 9.43781300 -26.91744700 -9.27792300
O -2.16490700 13.46108100 19.16131900
H -2.92220900 13.89959200 19.54960300
H -2.08848400 12.63296100 19.63491500
O -20.39131800 -14.52175100 -4.68660600
H -20.81920600 -14.08339500 -5.42234900
H -19.47427400 -14.60517900 -4.94734800
O -10.16463600 11.09553900 5.70723100
H -10.32182100 10.29714200 6.21162800
H -9.84475100 11.73282900 6.34555000
O 20.30527800 -16.67678700 5.21325100
H 20.03080800 -17.49000500 4.78909900
H 19.62225500 -16.04210700 4.99743400
O -12.68760800 -11.39540200 -14.03817800
H -13.38172400 -12.05315600 -14.08427500
H -12.31848600 -11.48597900 -13.15984900
O 15.15678200 -18.40014900 10.17455600
H 15.30987200 -19.08130700 10.82965200
H 15.17892800 -17.57738600 10.66290700
O 24.01244100 -10.39236600 0.39919600
H 23.88775300 -10.49714500 -0.54422200
H 23.78204600 -9.48120300 0.57979700
O -4.61535800 -15.57067200 -4.25655600
H -4.11509700 -15.82583900 -5.03192000
H -5.52723300 -15.54883600 -4.54625500
O 15.02678600 -23.09800600 9.38171800
H 15.73132100 -23.58751700 9.80665600
H 15.46996400 -22.48147100 8.79914200
O -1.96440500 9.73068700 -24.20265400
H -1.96026300 8.80115100 -24.43179900
H -1.83829300 9.75254500 -23.25421600
O -11.76909200 2.48211500 0.53038800
H -12.10510400 2.18954000 1.37777100
H -10.82320600 2.56097100 0.65285400
O -7.60939800 4.49992900 -24.51343300
H -7.62786500 4.44649100 -25.46913500
H -8.52871700 4.53193600 -24.24934300
O -9.15098000 -6.51885600 -0.30021000
H -8.57209200 -5.76935100 -0.15987500
H -9.38225700 -6.48285100 -1.22818200
O -1.65220200 10.30198800 27.49577600
H -1.06342500 10.10885500 28.22557300
H -2.32113700 10.87935200 27.86332500
O -9.92387300 -18.27543300 21.45325800
H -9.07815900 -18.40442600 21.88301500
H -10.25683000 -17.44980400 21.80453100
O -21.61343000 6.44299300 14.64429900
H -21.20510800 5.89008300 13.97787100
H -22.31624000 6.90420400 14.18685000
O 4.28528500 -5.26569100 -4.13874200
H 4.31764700 -5.02858100 -3.21176100
H 5.04487200 -5.83138000 -4.27636600
O 20.01391900 -11.32130500 -0.76587200
H 19.75683700 -10.48439100 -1.15322900
H 20.37236000 -11.83080100 -1.49240500
O 4.03068000 -25.51459200 11.16505600
H 3.34492200 -25.91124500 11.70261000
H 4.74086500 -25.31730800 11.77549300
O 23.57908100 -16.49780800 4.13268300
H 23.06227600 -15.91335400 3.57780700
H 24.38376800 -16.65932100 3.64043300
O 9.83908600 26.42828300 -10.23658300
H 9.67207000 26.80692600 -9.37327800
H 10.73487800 26.09445000 -10.19153600
O 0.03160600 -13.13746500 -5.09191000
H 0.72389700 -13.74680000 -4.83499100
H 0.26864100 -12.85080400 -5.97370200
O -9.16469900 27.34640900 -5.93386200
H -10.07392600 27.59056500 -6.10780400
H -9.21802000 26.52784600 -5.44088400
O 18.30301300 -3.90598900 -15.31183800
H 17.49860200 -3.59860000 -15.73016300
H 18.92513700 -4.02558300 -16.02917800
O -7.82926500 15.38897300 -3.45405600
H -7.90112200 15.76814700 -2.57791300
H -7.83414200 14.44206200 -3.31530200
O 5.05948900 21.09675900 -6.25297300
H 5.77936700 20.73555400 -6.77053300
H 5.24754100 22.03278000 -6.18649900
O 22.81352200 -3.04081600 -15.27293100
H 23.50060000 -2.40957100 -15.48744200
H 22.91056000 -3.74123800 -15.91784200
O -6.55792300 8.95111600 -1.14461700
H -6.25368100 8.29555500 -1.77250100
H -7.32636300 8.55919400 -0.73011200
O 25.97146400 13.63372900 2.81960900
H 26.61131600 13.68908100 2.10961700
H 25.14560600 13.40832200 2.39174700
O -26.46119200 -3.14308700 11.32387800
H -27.26270400 -3.53015500 10.97128900
H -25.87864800 -3.05026800 10.57025700
O -9.29213400 17.32980700 15.87828400
H -8.96154000 18.13955000 15.48894400
H -9.43696200 16.74033400 15.13837600
O 11.07381400 26.96232000 -2.14833500
H 11.55622000 27.55083200 -2.72928300
H 10.91526000 27.47292600 -1.35457200
O 4.98404800 7.02613800 -25.53397200
H 5.78203300 7.51467500 -25.73673700
H 4.85854200 6.43707400 -26.27772500
O -7.17242400 -25.80072800 -2.48886100
H -6.27223800 -25.66777100 -2.19128900
H -7.09440400 -26.31620900 -3.29142500
O -0.09151600 24.14391300 -16.37402900
H -0.57556100 24.86363600 -16.77932000
H 0.35614300 23.70747900 -17.09862800
O 19.07552000 -8.80252800 -6.99487100
H 18.94539700 -9.67887100 -6.63203100
H 20.01950600 -8.65239200 -6.94724600
O -9.81320300 -20.81747100 -15.57667700
H -9.70887800 -21.73685500 -15.82246500
H -8.92141400 -20.48656300 -15.47118100
O -17.66902300 12.35549600 17.59472900
H -18.10995100 12.88475800 16.92987900
H -18.16920400 11.54053200 17.63434700
O 2.79728800 20.32573800 -18.21808900
H 2.65058300 20.74098700 -17.36802600
H 1.95044200 19.95147700 -18.46036600
O -5.79948800 -25.34969600 -12.77894000
H -6.35897900 -24.78612000 -13.31365000
H -6.37125400 -26.05821400 -12.48397800
O 11.01499000 16.93699200 5.58901300
H 10.53151400 16.66532100 4.80862300
H 11.92546100 17.01013500 5.30333900
O 18.02385600 -20.89089100 -9.08475900
H 18.52264700 -21.56683900 -9.54395800
H 17.48160300 -20.48210000 -9.75912400
O -5.37767300 23.11689700 -10.44815500
H -5.06477200 23.51822700 -9.63723600
H -6.18570400 22.66523300 -10.20525000
O -0.82180000 -3.49727000 2.78229700
H -1.46012700 -3.87803700 3.38571700
H -0.37331200 -2.82141900 3.29023400
O 25.65126700 -5.64101300 4.66727000
H 26.15270800 -5.50653500 5.47165500
H 24.93734600 -5.00516500 4.71122600
O 1.18613500 13.83274700 9.58374500
H 1.55663700 13.51997300 10.40925300
H 0.43475900 14.36875700 9.83681500
O 7.97753800 19.73187100 -2.85249000
H 8.01587000 20.66305900 -2.63344400
H 8.88759000 19.43610100 -2.83692900
O -8.34564500 -11.74211000 -7.64951900
H -8.23042800 -10.87103700 -7.26936100
H -8.98001900 -12.17848200 -7.08113000
O 0.42561000 -4.65224400 4.21141400
H 0.33384100 -4.32502000 5.10643600
H 1.21387400 -4.22845300 3.87236000
O 13.88320900 19.23079700 -9.55623000
H 13.13883000 18.94255900 -10.08479400
H 13.96115900 20.16888500 -9.72894500
O 1.21370900 27.87235300 5.94553400
H 1.75014600 27.76255000 5.16020600
H 0.75602900 27.03854700 6.05143000
O -2.31042200 29.48835700 -5.01519000
H -1.62233900 29.41369400 -5.67664900
H -1.84758500 29.65258900 -4.19377300
O 16.12474000 -9.31619600 -20.29930800
H 15.34928300 -9.59357900 -20.78745600
H 15.78326200 -8.86524600 -19.52732800
O -11.89522100 -23.41681800 0.65242000
H -12.37983200 -23.91125700 1.31366500
H -11.96078300 -23.94059100 -0.14587800
O 1.38170700 28.74599100 8.22652400
H 1.46237400 27.79692500 8.12994600
H 0.58993400 28.97789900 7.74151800
O 12.88488600 16.20830500 8.60408700
H 13.02455400 16.64927100 9.44230200
H 13.35667900 15.37900600 8.67885700
O -4.31209700 26.91083500 1.72078600
H -4.94516200 26.63782900 1.05651400
H -3.76102600 27.56096000 1.28538200
O -4.32133000 27.61975800 -9.71360900
H -4.03120500 26.76223900 -9.40207900
H -3.52689000 28.15223900 -9.74891400
O 2.08459000 -9.88040200 -3.08123900
H 2.55553900 -9.29003500 -3.66965600
H 2.74635100 -10.19776500 -2.46701500
O 3.11048600 10.32074800 4.22368200
H 4.02149800 10.04687500 4.33144700
H 2.72959000 9.68237600 3.62092400
O 9.91657700 -25.74304600 0.38633500
H 10.85684400 -25.61628400 0.25830500
H 9.68900800 -25.17920900 1.12540000
O -0.59146200 -19.78426100 9.52720400
H -1.01796200 -20.63764700 9.60715200
H 0.03656800 -19.88723200 8.81243600
O 13.41402800 -22.99168400 -13.41320900
H 14.26743800 -22.97823800 -12.97953700
H 13.57201700 -22.62342500 -14.28231300
O 0.60039900 14.25992900 5.97264300
H 0.63463600 14.33287500 5.01866800
H 1.46019400 13.92488700 6.22644700
O 11.86887800 -18.62385800 -15.84346700
H 12.10454800 -17.96896800 -15.18609300
H 11.33895500 -19.26726500 -15.37322600
O -24.05898100 -6.28672200 -6.72988300
H -23.65106500 -6.80212600 -6.03380400
H -24.99330900 -6.48508800 -6.66988400
O 20.31893700 15.68640800 2.75619300
H 19.58701600 15.14372000 2.46235200
H 20.84791100 15.83428500 1.97246100
O 19.20824000 -7.24008000 -21.77828400
H 18.54215000 -7.80864600 -21.39147700
H 19.95465500 -7.29146900 -21.18150900
O 11.24360300 -7.03035500 4.66809600
H 11.08663000 -7.77184800 5.25299700
H 11.92361800 -6.51375400 5.10009200
O 25.72493100 12.97659200 -3.40853200
H 25.31775300 13.39704100 -2.65091000
H 26.40289500 13.58771500 -3.69629900
O 27.96630700 -4.59729500 -3.91858200
H 28.63758000 -5.02821600 -4.44798000
H 27.18150000 -5.13373800 -4.02914100
O 11.31305800 15.53119000 -19.49127800
H 11.76892900 14.90481600 -20.05377100
H 11.78355100 16.35645900 -19.60740000
O 18.14346000 20.40376500 -1.52504700
H 17.43623900 20.37995600 -2.16989900
H 18.89300800 20.77141800 -1.99294200
O 0.03572300 -18.39650700 -3.17535800
H 0.13246900 -17.52412100 -3.55764800
H 0.54114000 -18.97465500 -3.74650900
O 26.19971300 1.78127300 -4.74546200
H 25.28723800 1.65071800 -5.00412400
H 26.42149600 1.01112900 -4.22238700
O 11.28831900 19.53765800 -8.48556200
H 10.86604500 20.07931000 -9.15254100
H 12.15953100 19.91748900 -8.37315900
O 9.42333500 -21.86969800 4.28051800
H 10.30501600 -22.24277000 4.28479700
H 9.50247700 -21.05270400 3.78840600
O -12.52106700 -16.18979800 -1.19539200
H -12.81678300 -16.67416100 -0.42434900
H -11.58385600 -16.05336300 -1.05777600
O -5.29400100 -4.33017400 28.75658800
H -4.67558700 -4.88924900 29.22729100
H -4.89255500 -3.46140600 28.75727100
O 5.22306700 21.18222600 -2.94445000
H 5.23901800 21.98535800 -3.46530200
H 4.45701900 20.70034000 -3.25569500
O 11.15953100 9.37201900 22.93986300
H 10.82450100 9.69031600 23.77831700
H 11.32268700 8.43894000 23.07646500
O -10.29982100 -1.41462500 20.96639000
H -10.32621600 -2.36545800 20.85784400
H -11.21682300 -1.14089200 20.97611100
O -8.72434100 -14.77377800 -10.19436200
H -8.36279300 -14.03952000 -10.69106000
H -8.76344600 -15.49904100 -10.81756400
O 3.35582700 -7.95687400 -13.51308200
H 4.02683300 -7.72395800 -14.15500300
H 2.52339500 -7.83144300 -13.96832000
O -10.10964800 -16.56845400 -18.37131000
H -10.27383700 -15.93874900 -19.07350300
H -10.15025600 -16.05566400 -17.56426900
O -3.03370400 19.33199100 13.60114000
H -2.55023700 19.71314700 12.86796800
H -3.68082300 18.75397300 13.19734700
O -5.78038800 16.09878900 -0.07306300
H -5.25351400 15.58297000 -0.68371600
H -5.18220300 16.32760200 0.63808800
O -5.86234900 19.87139400 -0.76113100
H -6.09253200 19.02052500 -0.38750000
H -6.54183000 20.04833100 -1.41145100
O -5.34288900 4.90871100 -25.60087400
H -5.75752000 5.56447500 -25.03996700
H -5.48275600 4.07497200 -25.15228200
O 2.04426400 4.40729200 9.46716200
H 2.74150100 3.80536100 9.20620000
H 1.29070200 3.84754500 9.65356100
O 15.06611200 13.80511600 5.94340600
H 15.98484500 13.83876400 5.67627400
H 15.02412700 14.31673200 6.75112200
O 5.36259800 9.17163800 16.02080500
H 5.28406900 10.10361000 16.22531600
H 5.88297800 9.13714200 15.21835200
O -14.36395100 -15.25612800 -1.95000400
H -15.02546800 -14.60400500 -1.71828700
H -14.73798200 -15.73687600 -2.68817600
O -4.40173300 7.39690500 -25.04705300
H -5.30394100 7.71717600 -25.04399500
H -3.87203400 8.15114500 -25.30484900
O -16.54400700 6.31034800 -3.12630700
H -16.13929500 6.96861700 -3.69150900
H -17.07436600 5.77200100 -3.71352000
O -11.21439600 6.94650500 -25.28901800
H -10.65357300 6.49992500 -24.65450600
H -11.95394200 6.35462500 -25.42564600
O -7.61893000 -14.03016300 20.79136900
H -7.00395100 -13.50604600 20.27788700
H -7.08674500 -14.72131200 21.18508100
O -7.33587100 26.06270500 -11.97962700
H -8.07496600 25.99810800 -12.58471200
H -6.63056200 26.45825500 -12.49148300
O 4.16599200 -3.68130500 29.19649700
H 3.91392400 -2.85365500 29.60639900
H 4.93461700 -3.47119000 28.66641700
O 3.08189900 17.28868700 -7.76322200
H 2.48541800 17.98711900 -8.03334200
H 3.26748700 16.79808300 -8.56371200
O -8.28906800 -16.28319100 19.87955800
H -8.78203700 -16.11130700 19.07706200
H -8.47090500 -17.19877700 20.09063800
O -1.02284400 -12.07634500 24.54489200
H -0.95623900 -12.20653700 23.59875500
H -0.47124900 -12.75808400 24.92815600
O -6.20293500 -17.39521300 -7.92624500
H -6.34446700 -17.78891200 -7.06512200
H -6.91222200 -16.76082800 -8.02815200
O 28.24041800 -3.65116800 5.42389400
H 27.34150100 -3.32478600 5.37933300
H 28.16321500 -4.60154100 5.34175000
O -7.84827700 7.96096100 21.11127300
H -7.82066400 7.46283800 20.29416100
H -8.12276300 8.84138400 20.85547900
O -21.88129000 19.72055700 5.71011600
H -22.27309900 19.08631100 6.31076500
H -21.22784900 20.18542300 6.23244900
O -1.41927700 -13.75167200 -3.50279300
H -2.21967400 -14.00612200 -3.04324800
H -1.04288600 -14.57315700 -3.81808400
O 10.42909900 -15.32812800 8.25964200
H 11.02880600 -15.93375500 8.69567800
H 10.15862000 -14.71348400 8.94153000
O 12.81526900 -18.06535700 1.64164300
H 12.05912800 -17.93763000 1.06849500
H 12.74010300 -17.38149800 2.30692900
O -5.68962600 12.86559800 25.58014000
H -5.90100300 13.67662100 26.04287500
H -5.96768100 12.16457300 26.16935000
O -9.14536300 12.70801700 22.55903100
H -9.21623800 11.93954400 23.12559000
H -8.68029000 13.35999300 23.08300700
O 3.11712800 -15.71158100 -9.03003600
H 2.38910800 -15.25254600 -9.44936500
H 3.30083400 -16.45781700 -9.60038800
O 23.63875200 1.08478600 -18.13052300
H 24.30391200 0.67843300 -17.57464300
H 23.40190600 0.41025300 -18.76678200
O -10.56014400 21.94710500 -3.36572100
H -10.60139300 21.37922200 -2.59606500
H -9.99256600 21.48634900 -3.98335900
O 3.68153200 5.43329000 -24.34454900
H 4.47974800 4.91080900 -24.42472000
H 3.92811100 6.18018300 -23.79932600
O -0.91850000 20.52393500 19.49002700
H -0.25299900 20.77207300 18.84807900
H -1.49783400 19.92022200 19.02546200
O -12.92187500 5.34197300 19.53757900
H -13.70105200 5.53279000 20.06010700
H -12.18635300 5.64375300 20.07035800
O -14.74143800 7.94709900 24.89135500
H -15.40622400 8.19713400 24.24940200
H -13.90979200 8.00226500 24.42099600
O 3.41949200 -13.06497300 24.62302900
H 3.75530400 -13.10135800 25.51883600
H 2.84429000 -13.82567200 24.54305300
O -2.06258500 -14.06431200 0.78375900
H -2.12923800 -13.11897600 0.64789400
H -2.83202000 -14.29460100 1.30419500
O -3.05291200 13.31716000 -17.56854800
H -4.00130000 13.26379900 -17.68802600
H -2.93299400 13.80281100 -16.75265600
O 4.95754700 15.20768400 -13.73458300
H 4.35900700 15.69031100 -14.30500800
H 4.58867400 14.32644400 -13.67743400
O 1.09361900 21.01109600 4.19130700
H 1.43833400 20.58784500 3.40480100
H 0.83579600 21.88808000 3.90785800
O 16.01597500 10.02039900 -19.14049900
H 15.95307100 9.74075500 -18.22704200
H 16.42814700 9.28673200 -19.59631000
O 9.57433800 -14.88281800 -20.56714700
H 10.03701900 -15.18291500 -21.34972700
H 8.64545600 -14.98021600 -20.77597300
O 13.36185900 13.61140800 15.57202700
H 13.37220400 14.05500900 14.72369200
H 14.06983200 12.96920800 15.52436700
O -0.39063400 12.90167500 -4.90425500
H -0.67619200 12.07725100 -4.51011900
H 0.33757900 13.19797100 -4.35851600
O -0.29861000 11.58865800 20.37229200
H -0.34258500 11.03155700 21.14963800
H 0.58202800 11.45588600 20.02191300
O 3.82543900 7.45060300 22.73783600
H 4.40817400 7.51921200 23.49432400
H 3.06550100 7.98780600 22.96105200
O -16.14296700 4.50279100 6.65941600
H -16.14760000 5.39507000 7.00637300
H -15.45580400 4.49962300 5.99329700
O 0.98672400 -27.61443400 -3.37039900
H 0.80288500 -26.78514800 -3.81204500
H 0.70768200 -27.47998300 -2.46487400
O -21.91107400 10.06302400 4.79007800
H -22.09032400 9.18284200 5.12130600
H -21.93782400 9.97924900 3.83709100
O -8.95807400 24.99909700 12.81462300
H -9.22808000 25.63974700 12.15642400
H -9.47189500 24.21491000 12.62238600
O 0.97179900 -18.67923300 15.18857600
H 1.41221400 -19.52823700 15.23086800
H 1.50661000 -18.15205900 14.59529500
O -17.38729500 3.14408300 23.53179900
H -17.19565500 3.67247100 24.30681000
H -18.07548900 2.53925600 23.80836800
O -7.72963200 -15.83899800 9.02020600
H -7.49874300 -15.46458500 9.87054000
H -8.63795200 -16.12544900 9.11410700
O -10.46524900 17.15927800 -7.16308600
H -11.00486400 17.22550400 -7.95111600
H -9.56271300 17.22420000 -7.47474500
O 14.92751000 -10.26345000 3.70486300
H 14.05216500 -10.63084000 3.82878600
H 15.07587500 -9.71237600 4.47312300
O 13.58996800 18.01145200 4.13372800
H 14.41940400 18.42766500 4.36902500
H 13.72772100 17.66565800 3.25204400
O -5.14800100 12.45912400 -9.11242900
H -5.63635200 12.91008700 -9.80142000
H -4.50184600 11.92598700 -9.57520900
O 6.05864500 25.28740100 12.16494500
H 6.03333300 25.80604600 12.96926300
H 6.27712100 24.40005200 12.44919100
O -4.17255600 -28.79985300 7.29392400
H -3.84435700 -28.72306700 6.39784800
H -4.79165700 -28.07689700 7.39374800
O 6.64911800 -8.87716900 -3.23139700
H 6.62827200 -9.81224200 -3.02703300
H 7.48464800 -8.73967700 -3.67738100
O 22.39041000 11.91154700 -3.07517500
H 22.34226700 11.24056500 -2.39398000
H 22.97564900 11.54837500 -3.73964300
O -10.41413200 -15.30179900 -14.64753500
H -10.03949600 -14.42680300 -14.75045500
H -10.06409800 -15.80881000 -15.37988300
O 5.72832400 -0.43698400 -25.42242400
H 5.21657100 -1.07398900 -24.92352900
H 6.21516900 -0.95663900 -26.06184300
O 6.16604500 26.53758900 -6.10741200
H 6.85792100 26.76131300 -5.48466200
H 5.34820900 26.72153800 -5.64565000
O -14.79234200 20.22982900 -0.12760600
H -14.94565400 19.81790500 0.72290900
H -15.13499100 21.11887600 -0.03758700
O -15.58446300 24.99727900 5.68102500
H -14.76933800 25.43300500 5.93057400
H -15.90979900 24.59933600 6.48831400
O 1.88229200 17.47238400 11.77318700
H 2.59881200 17.65828000 12.38031500
H 2.30853300 17.28377900 10.93732600
O 19.79008400 -13.77995100 -16.85261500
H 20.71246300 -13.92839600 -16.64346700
H 19.60480600 -14.36663900 -17.58568100
O -22.72563100 -17.99434400 -0.36511800
H -22.15848400 -18.74494400 -0.54261600
H -23.19159500 -17.83639000 -1.18599900
O -22.79210600 19.10299300 -2.88933200
H -22.26317700 19.86685300 -3.12023000
H -22.37690200 18.36851100 -3.34106200
O -5.31836600 -28.91682900 -1.81691500
H -6.13485000 -29.28705000 -2.15284900
H -4.99857000 -29.55764300 -1.18208800
O -0.41859700 22.12917500 2.11810000
H -1.07401600 21.98933700 2.80179000
H -0.73815300 22.88035300 1.61856800
O 22.29757800 -5.88732000 8.41743600
H 22.60891600 -6.66126200 8.88716300
H 22.43236600 -5.15893200 9.02340600
O 7.80501000 1.51648200 -4.28241000
H 8.74352600 1.51288100 -4.09337300
H 7.71691600 2.02274200 -5.08978700
O -7.29594100 11.66953200 24.30228900
H -6.87455400 12.24558800 23.66420300
H -7.44398900 10.84790800 23.83438700
O -12.31673200 22.84129500 -15.02008800
H -11.51819900 22.93167500 -15.54041300
H -12.75473800 22.06618900 -15.37119800
O 23.48994300 -14.53620000 -10.62479600
H 22.95661300 -14.04687800 -9.99815000
H 24.25196000 -13.98077900 -10.78836200
O -11.18045900 3.94584800 11.51273200
H -10.95539400 4.41563400 10.70948400
H -11.58850900 3.13201400 11.21762900
O 5.62656700 16.42334600 2.08829200
H 5.29361300 17.20053000 1.63919400
H 6.40479100 16.72298300 2.55786800
O -4.04631500 4.74263000 1.92115700
H -4.38485600 5.41028500 2.51797200
H -3.46772200 4.20116600 2.45777900
O 17.29804200 16.10768100 6.46273800
H 16.34919200 16.06255800 6.58194300
H 17.48294200 15.52642600 5.72526100
O -11.33790400 -14.61426600 23.56392000
H -11.64520600 -14.06563600 22.84202500
H -10.66522700 -15.17589400 23.17921600
O -8.72831800 -24.40957700 -14.57765600
H -9.13784700 -24.08352800 -15.37924200
H -7.91645500 -24.82623100 -14.86609200
O -21.23845700 17.89202100 0.95704200
H -21.71572000 17.81495400 0.13069900
H -20.47161800 18.42637400 0.75126900
O -8.57664100 15.95677000 23.91536900
H -9.10454600 15.21118500 24.20169300
H -7.67725900 15.63024200 23.89514200
O -6.06110200 -11.48223200 -22.30229900
H -5.39839500 -11.30207500 -22.96932700
H -6.63530400 -12.13959500 -22.69483300
O -3.26798300 -9.87318100 3.02234300
H -4.22254600 -9.88322200 3.09493800
H -2.97019000 -9.32428400 3.74756600
O 16.92520400 23.22837100 8.60810100
H 17.28373900 23.17494600 7.72200800
H 16.15451500 23.79038000 8.52998400
O -23.05866800 -0.09560100 14.58233200
H -22.52181200 -0.80096600 14.94400600
H -23.11547900 -0.28300000 13.64554500
O 10.48203600 -26.29387600 -3.50897400
H 10.20721700 -27.16387500 -3.21890700
H 9.76879700 -25.98155000 -4.06544500
O -5.97110500 -20.40528700 -2.32679100
H -6.51841100 -19.68777100 -2.00712100
H -6.07053000 -21.10102100 -1.67718600
O 22.76144300 -12.47178700 -13.75579700
H 21.88394500 -12.09121100 -13.71431400
H 22.80825500 -12.89340900 -14.61367900
O 1.30907000 -11.47542100 23.95824700
H 1.35687300 -12.40973000 23.75491500
H 0.88838700 -11.07734000 23.19635800
O -6.23004000 15.63113100 -10.68611200
H -6.50793400 15.07960700 -9.95456600
H -5.42541700 15.22643000 -11.00971100
O -14.97458500 -20.33804200 11.46301900
H -15.50056200 -20.82587600 12.09699700
H -14.06642200 -20.54286800 11.68483400
O 16.39954100 17.19706000 15.33805400
H 15.75434400 17.44843700 14.67692400
H 16.32916000 16.24485200 15.40335400
O -11.29647200 21.09990700 10.19382800
H -12.07356100 21.60914500 9.96280900
H -11.58023400 20.52276700 10.90256400
O -14.09928800 16.78319100 -18.66799600
H -13.55418200 16.67408300 -19.44742900
H -14.42743200 15.90613400 -18.47048600
O 13.75980700 -26.18811200 -4.12583700
H 14.29335500 -25.92234700 -4.87500900
H 13.01384500 -26.65232600 -4.50526100
O -1.37866400 4.00678300 4.77895900
H -2.06743600 4.23337300 4.15381000
H -0.55939100 4.12627900 4.29892800
O -6.32083400 9.67153100 5.88604500
H -6.07815700 9.81963700 4.97186000
H -5.61987000 10.07585900 6.39700900
O 6.55916500 -17.47679800 3.70738100
H 6.40371300 -18.42046800 3.66399000
H 7.02588900 -17.34030400 4.53167200
O 0.06497900 -19.26619000 21.70149800
H -0.04802600 -18.32738500 21.55170700
H 0.70925500 -19.32874500 22.40641900
O -0.66933200 21.58354200 -9.47133800
H -1.16732300 21.83302600 -8.69266900
H -1.00124600 22.14826900 -10.16907300
O -5.82877900 16.66572000 20.82452800
H -5.30864600 15.91655400 21.11568500
H -5.38336200 17.43188600 21.18579000
O 23.41570600 -5.96658900 -11.88600200
H 23.18845500 -6.48071100 -12.66098400
H 23.02228800 -5.10696300 -12.03493900
O 7.84198000 -3.25030500 28.77406100
H 8.58686800 -3.27951100 28.17335300
H 7.10557500 -3.59988500 28.27264500
O 16.92709000 -16.07597000 6.38027900
H 16.20470300 -16.64213600 6.10792800
H 16.56426700 -15.52940200 7.07708600
O -8.16357000 -24.87124500 -0.71545600
H -7.74697900 -24.32090000 -0.05203000
H -8.01931100 -25.76948000 -0.41833700
O 15.70891100 -6.15373700 19.76839000
H 16.56834600 -6.56101000 19.87821400
H 15.46919300 -6.32300800 18.85745700
O 16.14034100 -4.07905200 -20.56909100
H 15.25610100 -3.99979000 -20.92742000
H 16.71615300 -4.10139000 -21.33319700
O 13.21823200 17.15865200 -1.65726100
H 13.37920900 18.05917700 -1.93957700
H 13.70958300 16.61462100 -2.27250300
O 7.86517400 8.12243700 3.70244100
H 7.85504700 7.35974100 3.12386100
H 7.75132000 8.87498600 3.12224800
O 16.16963800 -21.38508600 -13.46438500
H 16.96387700 -20.99075500 -13.10348600
H 15.45240000 -20.84487100 -13.13324400
O 11.66572600 11.58333100 7.14639400
H 11.15916100 12.16052100 7.71806400
H 11.02072500 10.99542600 6.75363700
O 10.50105600 -13.49342700 -0.13208900
H 11.01221200 -13.62454700 -0.93089400
H 9.71952900 -13.01802200 -0.41337500
O 12.48192400 -8.32310000 -14.57529800
H 11.64088700 -8.21102400 -14.13183800
H 12.40784400 -7.81048000 -15.38006500
O 7.27583600 2.16857200 8.09554000
H 7.44356300 1.27342900 7.80033300
H 6.34277400 2.31085700 7.93720900
O 25.76281800 -9.53631100 2.37637500
H 25.99002700 -8.83478900 1.76579700
H 25.67831800 -10.31972200 1.83319400
O 3.81362600 17.99436800 6.31261700
H 4.37833600 18.31435900 7.01637200
H 2.97964900 17.79271300 6.73656800
O 16.16715100 -8.37180200 -4.20641600
H 15.44744100 -7.86634500 -3.82814000
H 16.50315900 -8.90274200 -3.48453100
O 15.04841300 0.37612500 -17.89319700
H 14.61157100 0.19100200 -17.06165600
H 15.14155300 1.32830900 -17.91744900
O 8.16434800 28.60790500 -0.52322800
H 7.84797400 28.92320100 -1.37002100
H 9.11707200 28.57994500 -0.60956400
O -14.31598400 -22.25661800 -6.89030500
H -14.95675200 -22.36933000 -6.18797000
H -14.68434500 -21.57739000 -7.45499600
O -10.26687900 -9.68287200 18.28144300
H -10.31122100 -10.45598900 17.71851700
H -10.67893100 -8.98344800 17.77455500
O 11.78895400 20.79039700 -17.78437000
H 11.24585400 21.55183800 -17.57988900
H 11.31187300 20.04234900 -17.42557300
O 14.72218100 -9.32636000 -10.19935300
H 14.86602600 -8.66979600 -9.51759500
H 13.95538900 -9.82034500 -9.90965100
O -21.06266200 17.01469400 -4.49209500
H -21.64094100 16.70376800 -5.18885900
H -20.78232900 17.88555300 -4.77304900
O 24.66292200 -13.76364500 0.80405500
H 25.34485700 -14.35914400 1.11535600
H 23.97977100 -13.79784400 1.47342200
O 9.17852700 -20.03199100 -4.12430400
H 8.41427100 -20.42596200 -3.70328000
H 8.82660700 -19.53992200 -4.86588100
O 7.98884500 -25.84462200 -12.36552800
H 7.30730900 -25.60094700 -11.73887600
H 8.71840100 -26.15529800 -11.82966800
O -4.52187400 -7.93719400 -9.37345100
H -3.61030400 -7.67198100 -9.24990400
H -4.87176000 -8.04083200 -8.48871700
O 3.31823900 -20.74326300 21.41758600
H 3.79245400 -19.94403700 21.18754100
H 2.41721900 -20.46059000 21.57307000
O -26.46954200 -10.66832700 -7.27670700
H -26.61766400 -9.92012700 -7.85534300
H -25.94986600 -11.28287500 -7.79457100
O 6.90317600 7.66924500 23.18916000
H 7.82147500 7.51737600 22.96505300
H 6.92329600 8.07047300 24.05779600
O -20.21881300 10.28450500 18.00603000
H -19.83928100 9.82060400 17.25949600
H -20.92119400 10.81822500 17.63492200
O -21.42698000 17.34180100 11.74568400
H -21.11783900 16.51262500 11.38036100
H -21.34359100 17.97348800 11.03158600
O 10.16895600 -21.99000000 -17.69293500
H 10.34111500 -21.58258900 -16.84385400
H 9.42948000 -21.50289000 -18.05600000
O -27.50004700 9.72337400 -4.74232400
H -27.83706500 10.09312900 -3.92607600
H -26.94579000 10.40903900 -5.11458600
O -3.70158200 28.42764800 8.73668100
H -3.76978400 28.70010900 7.82143500
H -3.03184400 27.74402800 8.74234900
O -22.08251400 7.12808600 2.73359000
H -22.27754600 7.87487400 3.30001000
H -22.90704500 6.93259500 2.28878800
O 4.76134600 -11.67436200 -8.97471400
H 4.10014900 -11.18762400 -8.48230500
H 5.33085600 -12.06071100 -8.30965000
O -17.66545400 11.85822700 -0.24315900
H -17.84703300 11.89280300 0.69620000
H -16.78368400 12.21785300 -0.33838200
O -1.82777800 -13.36018000 18.24440700
H -1.52683100 -14.01781800 18.87170700
H -1.41388300 -12.54374200 18.52375600
O 7.88406400 23.96490400 7.87200200
H 7.49874100 23.76211900 7.01937900
H 8.77160600 24.26550600 7.67751600
O 3.70732100 -2.39539500 6.46797400
H 4.33356400 -2.03160200 7.09410200
H 3.35369700 -3.17497700 6.89589900
O 22.98115400 11.57662300 -9.29391700
H 22.25689300 11.59601400 -8.66811200
H 23.75888200 11.39361600 -8.76707200
O 6.31366800 -18.44058300 13.05512500
H 5.61154500 -17.79074500 13.09110800
H 6.53546300 -18.61646400 13.96934100
O -13.58297200 -14.81088300 -4.31541600
H -12.95763700 -14.81211200 -3.59049100
H -13.04519600 -14.77737400 -5.10635900
O -14.79928800 -4.59988800 18.90464100
H -15.38112500 -5.16369400 19.41469200
H -15.38248600 -4.05795400 18.37350700
O 6.91499800 -11.21102500 -15.96107200
H 7.42579400 -11.48342800 -15.19854500
H 7.42441100 -10.50682600 -16.36172000
O 2.27011600 -9.68330600 -24.55993100
H 1.33902400 -9.46056400 -24.55581700
H 2.70749500 -8.91288800 -24.92196900
O -10.42448300 15.48775100 3.65933600
H -10.83714500 15.14888900 2.86470200
H -10.94412000 16.25432600 3.90070100
O -6.75048600 -23.61533500 -17.22686100
H -6.33427600 -24.17079200 -16.56746700
H -7.64613200 -23.48856300 -16.91435000
O 24.89677900 -2.18216200 10.82063200
H 25.82919600 -2.36492000 10.93793600
H 24.47123700 -2.56275900 11.58873200
O 1.65035600 -0.19075300 7.14836800
H 0.69522700 -0.24373700 7.10984400
H 1.87053100 0.63241100 6.71266200
O 1.81715800 20.18283500 -4.49586100
H 2.32802300 20.38767600 -3.71252300
H 2.10912300 19.31082500 -4.76095200
O -2.35454700 -10.50585800 -27.00914200
H -3.03305600 -9.85169600 -27.17724500
H -2.35150300 -11.06481500 -27.78597900
O -3.74788300 -6.46368500 -11.20129600
H -3.29221900 -5.92769100 -10.55195600
H -4.67349200 -6.40524100 -10.96518400
O 18.11344000 18.05027500 -0.80612000
H 18.87352600 17.58268300 -1.15280300
H 18.47466100 18.68923200 -0.19197800
O 7.09450800 13.37014600 4.21315400
H 7.16450700 14.07589100 4.85626000
H 6.67611800 12.64835400 4.68207100
O 14.85047200 18.73158800 10.19502500
H 15.61505600 18.24430700 9.88756800
H 14.26852400 18.06970800 10.56807900
O 2.45969000 26.39935400 -5.29773100
H 1.67426900 26.94636700 -5.31900700
H 2.88018500 26.60212200 -4.46227500
O 12.26531700 -10.91880100 -18.69999400
H 11.53881100 -11.31015300 -18.21461300
H 12.17802400 -11.25627900 -19.59128800
O -26.60956000 0.83925400 2.31140400
H -26.11983600 1.08371200 1.52592800
H -27.14294800 0.08975000 2.04747500
O -6.94619300 5.76178700 15.19513100
H -6.57756700 4.94646300 14.85465500
H -7.04539300 6.32746700 14.42957200
O 22.54621600 -9.07628500 11.48250400
H 21.71246600 -9.09457400 11.95270400
H 23.13917500 -8.58272100 12.04881800
O -3.71940100 -5.59623900 2.16091100
H -2.96921600 -5.00857100 2.25273200
H -4.45320600 -5.12450200 2.55449800
O 16.97925800 15.01441600 3.64701800
H 16.09078700 14.65893300 3.61853100
H 17.03801200 15.59538200 2.88876800
O 26.82190700 4.74909700 10.06279900
H 27.36373300 5.14826500 10.74371900
H 26.03422300 4.44999200 10.51667900
O -4.18070700 19.18856100 10.56460700
H -4.19564500 18.38919500 11.09125000
H -3.94548200 19.88474500 11.17772500
O -12.06657900 26.52802500 0.44012700
H -11.87333700 25.95857100 -0.30481700
H -12.59588200 27.23843200 0.07808300
O -4.16573600 0.01107000 -9.31100100
H -4.22202500 0.71310600 -9.95949000
H -3.77664700 -0.72763100 -9.77881300
O -11.52169400 -19.08707800 -0.46401100
H -12.46779900 -19.01782100 -0.59304500
H -11.22102400 -18.18603000 -0.34727000
O -0.49519200 0.14214100 -29.27504700
H -0.80751100 -0.41741600 -29.98632400
H -0.05579100 0.87294400 -29.70952500
O -23.13289900 7.06187800 -6.81971000
H -22.73411900 6.61002300 -7.56359400
H -22.64702300 6.75534800 -6.05428200
O 13.91212400 13.53348800 21.43100600
H 13.56076900 12.81927400 21.96299300
H 13.39048300 13.52449800 20.62868000
O -16.35781200 13.37058400 4.55004900
H -16.29121500 12.63166800 5.15513600
H -16.08059000 14.13266300 5.05828200
O -16.13150600 -21.38316500 -1.97976400
H -16.48010100 -21.94394500 -2.67299600
H -15.22773600 -21.67327900 -1.85748900
O 2.98742100 -6.80887600 -18.24915300
H 2.67441600 -7.40031200 -17.56446800
H 3.79141200 -6.42669100 -17.89779900
O 2.12522100 -23.91783800 6.61448000
H 1.29891900 -24.32709900 6.87195400
H 2.79602300 -24.57362900 6.80389800
O 18.83154500 -20.38982400 10.75481300
H 19.24003200 -19.88244000 10.05319900
H 18.53959600 -21.19984700 10.33702500
O -24.58315100 11.91172700 1.36445300
H -24.46732700 12.19784400 2.27070000
H -24.83013300 10.98913600 1.42563900
O -11.64213500 -4.74763400 26.32452300
H -11.32015400 -5.64913600 26.33809600
H -11.69938000 -4.49119000 27.24478100
O -16.19793100 -23.04983800 10.05719600
H -15.75346900 -23.69502900 9.50697400
H -16.98273000 -22.80507400 9.56719700
O 11.36908200 -11.05379500 -14.59010900
H 10.98141100 -11.63987300 -15.24032900
H 11.44475200 -10.20849900 -15.03245000
O -8.57799600 -20.77348300 10.85405800
H -7.95300200 -20.62770900 11.56447700
H -9.43899600 -20.64267900 11.25090400
O 24.34520300 15.45855700 -2.97561400
H 23.90996500 15.86896700 -2.22815500
H 24.38950100 16.14312400 -3.64293900
O 6.14528100 -8.32839500 7.32256700
H 6.95714700 -8.10656600 7.77888800
H 5.47920300 -7.76293400 7.71309300
O 4.21805800 22.58103800 18.38004200
H 3.83695700 22.86200300 17.54794700
H 4.59300700 21.71867600 18.20210400
O -6.61973900 10.02137400 -3.54851600
H -5.96201900 10.17656700 -2.87037100
H -7.37442900 9.66048100 -3.08363200
O -12.14159200 -1.54242500 -22.65856300
H -11.88826400 -0.71091000 -23.05977400
H -11.50644900 -2.17907200 -22.98596300
O 9.91371100 -20.16367600 11.52713600
H 10.59804800 -19.84443100 12.11563200
H 9.32876900 -19.41705700 11.39938300
O 12.85937700 0.20060200 -26.25082900
H 12.18966600 -0.20415900 -26.80238900
H 13.37119100 0.74921200 -26.84495900
O -3.53372900 4.05808400 10.72168600
H -3.91064600 4.88742000 10.42724300
H -4.00264900 3.84546800 11.52842400
O 7.23011700 21.62158600 -9.63013000
H 6.48253600 21.77379200 -10.20850600
H 6.86203000 21.19464800 -8.85672700
O 9.26790000 14.16473400 -19.64534600
H 9.51476100 13.78453800 -18.80209500
H 8.72509900 14.92189200 -19.42626500
O 2.26849200 -23.08037200 -1.54521200
H 1.93436900 -23.60086300 -0.81445000
H 3.02829400 -22.61747000 -1.19259500
O -9.51198800 -4.71424600 27.17254500
H -9.34209200 -5.02212000 28.06300100
H -9.44088400 -3.76114900 27.22221500
O -17.53729000 -20.73552200 10.95127400
H -17.93393400 -20.89264500 10.09421600
H -17.06923200 -19.90584400 10.85922800
O -7.77986100 -1.39795300 -23.87513700
H -8.71665900 -1.20264000 -23.90382500
H -7.70079400 -2.28446600 -24.22693000
O -5.70851200 -16.43352800 21.26778600
H -6.35108300 -16.89061400 20.72488900
H -5.24261700 -15.85404500 20.66524300
O -2.49030200 -13.22438800 -5.35026800
H -2.92781500 -14.05066000 -5.55622800
H -3.01387300 -12.55172000 -5.78536500
O -15.95375700 -20.30786400 5.37598500
H -15.46434400 -20.87381400 5.97325900
H -16.70816900 -20.82955200 5.10281700
O 3.91234300 -11.46498800 -6.27752900
H 4.79703400 -11.11856800 -6.39532900
H 3.94678400 -12.35581100 -6.62561900
O 13.32154200 -19.02505800 3.64854100
H 12.91418000 -18.95046400 4.51170600
H 13.15891000 -19.92765700 3.37507500
O 8.52510300 -16.19899000 -14.98130600
H 8.42667800 -17.11146400 -15.25382100
H 7.73687000 -15.75912400 -15.29930500
O -3.29285700 -15.46925900 -11.87073600
H -3.77996500 -14.65063500 -11.96635200
H -2.37763800 -15.20395300 -11.78183000
O -11.40372500 -7.11571800 22.81084700
H -11.15271600 -6.48072600 23.48192200
H -11.93845700 -7.76309100 23.27007000
O -1.17704300 15.87638500 -17.66655700
H -0.64118300 16.23245600 -16.95759400
H -0.91102900 14.96015600 -17.74191900
O -3.94852200 -13.81120600 18.98356700
H -4.04005300 -14.33602700 18.18811300
H -3.93488000 -12.90332600 18.68110100
O 22.36814800 13.28502100 10.91918700
H 23.16916500 12.90099300 11.27619800
H 22.56707300 13.46301200 10.00013000
O -5.31024000 16.50688500 13.96809000
H -5.45942800 16.30333300 13.04458000
H -5.26250700 17.46195200 14.00663700
O 8.62646600 -16.89345000 -17.66400200
H 7.76940300 -16.66521300 -17.30356600
H 9.25382100 -16.38028400 -17.15507800
O -10.00479400 -12.26110100 -2.11060500
H -9.83046600 -12.01058400 -1.20318400
H -9.53560800 -11.61650400 -2.64001700
O -1.65445000 28.16864400 7.07692700
H -1.60307000 28.98442000 7.57535600
H -1.07447000 27.56113600 7.53570100
O 21.69053800 18.21308100 3.66362800
H 20.96208800 17.60277900 3.77962500
H 22.29409800 17.76818000 3.06890600
O 0.10957500 7.41602400 13.32441700
H 0.55030600 8.20458900 13.00742600
H -0.09216200 6.91140100 12.53665100
O 4.24075200 -6.25019600 5.43599100
H 3.91081000 -6.20116500 6.33337400
H 3.56765300 -6.72659900 4.95030100
O 7.79419400 0.37464600 22.53491100
H 7.18217300 0.97961200 22.11537700
H 7.78666400 -0.40743100 21.98335400
O -6.64599000 -19.26514200 7.74138400
H -7.30358200 -19.86783800 7.39368600
H -6.42173600 -19.61397300 8.60390500
O 28.14222900 5.52640500 8.48407200
H 27.56725900 5.49741500 7.71913300
H 27.92961200 6.35002400 8.92266400
O -19.73552000 5.77541000 19.13025900
H -19.82102500 4.83671300 19.29788600
H -19.09950000 5.84295600 18.41833600
O -5.53964400 -20.74713100 -18.52065800
H -4.74228900 -20.49087100 -18.98446500
H -6.08206600 -21.17885400 -19.18043900
O 19.12722400 -19.70146900 -12.08367800
H 18.65729200 -20.39233400 -11.61631100
H 18.66991000 -19.61272500 -12.91968400
O -14.47838000 23.15655800 11.49703900
H -14.79089900 23.75999300 10.82268000
H -15.26461500 22.88592200 11.97086300
O 21.04484400 -17.39204800 9.99665900
H 20.28110100 -17.95663000 9.87621800
H 21.78507800 -17.99221300 10.08482100
O 11.03947700 19.69287800 -13.81662800
H 11.16555300 20.30676200 -14.54037700
H 10.24399200 19.20901400 -14.03797800
O 5.96856300 -10.30394200 17.95781100
H 5.45806500 -10.26735600 18.76689400
H 6.32342700 -11.19228100 17.92880600
O 7.82339300 -12.01575300 -1.94965600
H 8.16153500 -11.33645600 -1.36589500
H 8.59521700 -12.50564800 -2.23286600
O -4.80924200 13.63539100 -23.51813000
H -5.11943300 13.49850400 -22.62280600
H -4.26698200 14.42278300 -23.47472400
O -3.30865800 21.15751500 16.26973500
H -2.85092500 20.81217000 15.50306700
H -2.62075500 21.52596900 16.82376400
O -10.24364500 -11.82334500 -13.82754100
H -9.36487400 -11.95343200 -14.18447400
H -10.49090800 -12.67272700 -13.46240000
O 22.99618200 -8.58380600 15.28886100
H 23.91555400 -8.53932900 15.55218600
H 22.94591000 -8.07739800 14.47834300
O 6.77002100 15.59719800 15.14194100
H 7.01387800 16.02629400 15.96229000
H 7.59975400 15.33626700 14.74272300
O -8.25976800 -7.98670600 -3.30097000
H -8.57219300 -7.08974400 -3.18092800
H -8.44889800 -8.19451000 -4.21582800
O 8.80341400 12.57128300 -11.19873700
H 8.03230500 13.12354300 -11.06850200
H 9.29954600 12.64238300 -10.38343700
O 8.01276700 -16.87959100 12.02632300
H 8.21683100 -16.01451800 11.67055900
H 8.84093500 -17.35866200 12.00297300
O 1.71408800 0.84005500 28.51424300
H 1.36884800 -0.01609500 28.76797200
H 1.05033100 1.21278600 27.93422900
O 9.18414300 -12.45604400 -14.25491100
H 9.36889000 -12.45202400 -13.31554200
H 9.59587200 -13.25448200 -14.58489900
O -1.32457200 -26.96691700 -4.34743800
H -1.09855800 -26.09737000 -4.67814600
H -1.60116500 -27.46113100 -5.11890800
O -24.83508700 1.06194200 -11.33889000
H -25.44482700 1.79301500 -11.23735000
H -25.36122600 0.34900700 -11.70057900
O 4.40563200 -10.76285000 25.76972100
H 3.82754500 -10.94141000 25.02776800
H 3.96644500 -11.15279200 26.52535100
O -22.75686600 9.67506400 -4.94941900
H -23.22327900 10.34049700 -4.44323700
H -22.82609600 9.96256500 -5.85962100
O 7.60338800 -14.60804900 22.18203000
H 7.39055000 -15.44695500 21.77276300
H 7.26423200 -13.94572700 21.58018300
O -10.25444700 22.77523000 3.95400000
H -9.53009000 23.13996800 3.44524300
H -10.91241900 22.52658900 3.30502600
O -0.81313900 6.16046000 3.47804400
H -0.12295700 6.27255300 4.13199100
H -1.62541000 6.37658100 3.93567200
O 6.86177500 -9.96758600 -8.32180700
H 5.90581700 -9.92452000 -8.29260900
H 7.05903500 -10.78438200 -8.77990200
O -22.30039800 6.98166600 -0.37741500
H -21.97290500 6.28661700 0.19374000
H -22.33693100 7.76104100 0.17680200
O -7.10006200 0.52953200 -22.19312900
H -7.34839200 0.62028400 -23.11326900
H -7.36940800 1.35059200 -21.78175200
O -6.78937000 -22.14922800 10.44448400
H -7.44705900 -22.65100300 9.96258200
H -6.66488400 -21.34942500 9.93386200
O 16.15860700 18.28385300 -6.26131800
H 15.68519300 17.77844600 -5.60025500
H 16.96891100 18.55654700 -5.83124500
O 16.61097800 -14.66268000 -16.15370900
H 16.99129900 -14.33284100 -16.96803400
H 16.09519400 -15.42612000 -16.41263500
O 2.19663200 -13.56350000 15.03499800
H 1.43462300 -13.57777700 14.45560300
H 2.57556600 -14.43972400 14.96748700
O 16.55508600 23.53257300 -6.09059400
H 17.31464600 23.84998500 -5.60184100
H 16.39093800 24.20148500 -6.75507200
O -14.27662900 13.82636100 -6.63198700
H -14.14152000 13.80754800 -5.68438300
H -14.68338100 14.67471600 -6.80738600
O -8.44533700 -21.32114800 -18.41600000
H -8.35160500 -21.20641600 -17.47016000
H -7.97851000 -22.13267500 -18.61452700
O -4.42285900 9.47671100 -1.46331100
H -4.39535500 9.89411400 -0.60216000
H -3.52801300 9.17662700 -1.62179600
O 7.81004000 -14.96429000 -6.24500800
H 7.94887000 -14.75777200 -7.16947500
H 6.90631700 -15.27503600 -6.19364200
O 23.28182800 -14.22443600 -4.10490400
H 23.79194200 -14.44249000 -3.32464900
H 22.95603000 -13.33831700 -3.94817300
O 8.11272800 22.46261600 14.22380100
H 8.31174800 23.34706800 13.91607100
H 7.17385400 22.35354600 14.07367800
O -15.69825100 15.53623900 14.96922800
H -15.43938300 15.02817100 14.20019100
H -15.40576600 16.42892800 14.78626300
O 2.05250900 -26.52012800 -11.24115100
H 1.54392000 -26.57336300 -10.43178900
H 2.28001900 -25.59481300 -11.33030400
O -6.60097600 16.34946700 2.98268800
H -5.80426200 16.18423000 3.48717400
H -7.04405200 17.06052600 3.44528400
O 25.38038500 4.90744300 0.67528900
H 24.77699200 5.32907000 0.06315300
H 26.17247100 4.73839000 0.16544800
O -0.72819500 -20.04919600 11.70697300
H 0.05646200 -20.56677500 11.52535200
H -1.30259800 -20.63483600 12.19992800
O 4.44340700 13.60460100 12.00760300
H 5.10654900 14.18666500 11.63611100
H 4.64041600 12.74119900 11.64478000
O -6.19182900 -25.78192400 3.34263700
H -5.86557700 -26.42443800 3.97295200
H -5.47785400 -25.66490200 2.71616800
O -13.34905600 0.11108100 22.59541800
H -13.63553900 -0.74390700 22.91710900
H -13.40307900 0.69197300 23.35407600
O -13.76605500 -6.46975400 20.13916700
H -13.09925900 -6.15711500 20.75088800
H -13.39038900 -7.25630500 19.74403400
O -5.06645300 14.21771000 -15.66564700
H -5.70616200 14.74265000 -15.18422000
H -5.49263600 13.37173300 -15.80205600
O -2.67225800 20.98043100 -21.27645900
H -2.05948100 21.32085800 -20.62440400
H -3.32910300 20.50054300 -20.77229800
O -12.36467600 21.94101800 -12.15423000
H -11.86499700 22.24718400 -12.91129300
H -11.98463000 21.09072300 -11.93404400
O 3.97017400 -13.62672100 -9.60680400
H 4.52324900 -14.01205300 -8.92695900
H 3.22957400 -13.24441800 -9.13640900
O -2.87484200 13.07389700 24.35750300
H -3.83017400 13.09723200 24.41545400
H -2.61753100 12.28058900 24.82694000
O -10.01041600 5.57269000 -4.46908400
H -10.73927500 4.98224400 -4.27750800
H -9.69328600 5.86051500 -3.61322000
O -4.89691700 -18.01818100 -1.81249500
H -4.51571400 -18.87152600 -1.60501600
H -5.15902900 -17.65206600 -0.96799800
O -19.24863800 5.43286300 16.08003900
H -19.63086200 5.07339300 15.27926000
H -19.03984500 6.34249500 15.86816200
O 16.32228000 -5.65453800 -14.81764600
H 15.77045200 -5.87140700 -14.06597000
H 16.05945300 -6.26844800 -15.50317800
O -7.57776400 28.44298000 2.26192600
H -7.28697800 29.05889300 1.58912800
H -7.71648100 27.61721600 1.79847300
O -16.05436300 -22.43911800 -11.77951500
H -16.80707000 -22.15126800 -11.26266200
H -15.57650200 -23.03976600 -11.20786100
O 13.23744600 15.70243200 -15.99703100
H 13.67588000 16.27288400 -16.62863300
H 13.03739300 14.90254600 -16.48290900
O 19.43094400 21.87230500 -5.13921400
H 19.02186500 22.68670500 -4.84600900
H 19.05866400 21.19216300 -4.57820400
O 8.75273000 8.51676800 10.56455900
H 8.69601000 8.50540000 9.60893600
H 8.67358600 7.60020000 10.82829600
O -6.04039400 -25.64683000 13.21468400
H -5.74515800 -25.77531500 12.31308000
H -5.45449300 -24.98122400 13.57469100
O 1.48753300 22.51108300 19.60515900
H 1.28251400 23.20192400 18.97486700
H 2.44197200 22.51525200 19.67548700
O -21.84298200 -16.79212600 11.79092000
H -21.86439900 -17.20756300 10.92864700
H -21.20480200 -17.29790100 12.29374800
O 15.51677100 -11.27519100 -10.92207700
H 15.29703200 -11.13524800 -11.84332200
H 15.85322200 -12.17018900 -10.88088800
O 11.37976000 11.48558400 22.00289400
H 11.31878600 11.03066200 21.16272200
H 11.40806200 12.41573500 21.77943200
O -18.57850500 12.19814100 -6.18842400
H -18.76605400 11.50150200 -5.55907400
H -19.03112000 12.96905600 -5.84674200
O -14.05749900 9.76577400 -21.57395600
H -14.17385300 10.03713000 -20.66324800
H -13.18103200 9.38296500 -21.60828900
O -14.47629300 10.10445100 8.19768500
H -13.97438600 9.29279200 8.27424100
H -15.20186200 10.00605500 8.81395300
O 3.95535200 16.08719400 -24.95167300
H 4.11095500 16.88922900 -24.45258400
H 3.16178500 15.70966000 -24.57267800
O 8.63914900 16.09167600 19.48347500
H 8.43550100 16.69065100 20.20202700
H 7.82444300 15.61765700 19.31770800
O -12.85360600 19.05564500 -18.36282600
H -13.31482100 18.84302800 -19.17439100
H -12.51659000 19.94167600 -18.49429700
O -7.36062000 18.11188300 -7.77859400
H -8.02754300 18.57300600 -8.28765300
H -6.88581300 18.79946200 -7.31200000
O 18.71256200 -10.29727000 -13.37110300
H 19.52784300 -10.64043800 -13.00488700
H 18.35217500 -9.73284100 -12.68739300
O 9.94745900 -9.90592500 -23.52676100
H 9.83466200 -9.02264800 -23.87841400
H 10.59659500 -10.31828000 -24.09641300
O -7.70960100 -4.19354600 -25.38661000
H -8.65880300 -4.21983100 -25.26459600
H -7.34372800 -4.43329500 -24.53539000
O 9.47859300 20.56255900 5.82707000
H 8.57999100 20.33238700 6.06391700
H 9.43446000 21.47653100 5.54666900
O -5.12794900 18.52266900 1.53742400
H -5.51399700 19.29816900 1.94501100
H -5.13653400 17.85320400 2.22128000
O 14.92917400 -11.26849600 -18.64834300
H 14.36736500 -10.93674400 -19.34896600
H 15.67169900 -11.67283900 -19.09676300
O -9.48462200 21.48678500 1.99647800
H -8.82487300 21.99703100 1.52643200
H -10.26154500 21.51234400 1.43821700
O -6.63670700 4.08121200 28.38722300
H -6.52963600 3.42850600 29.07937400
H -6.40760900 4.91564300 28.79607000
O -1.88351300 -26.78025400 -7.81855200
H -1.14980500 -27.06073400 -8.36587600
H -1.48404000 -26.28539000 -7.10339600
O -2.29858700 6.82709600 1.22511600
H -1.76316000 7.62024600 1.25328900
H -2.72853900 6.78803600 2.07924200
O 2.75382200 21.29755000 10.55940400
H 2.69019500 20.83882000 9.72150100
H 3.05348300 22.17886900 10.33714900
O -5.19309700 13.94918800 19.99558100
H -4.88029600 13.77265200 20.88302300
H -5.93008000 13.35183500 19.86931900
O -7.64551700 -17.19564800 -3.15477100
H -8.13371300 -16.73742500 -2.47047700
H -7.74595100 -18.12521600 -2.95048300
O 3.90421800 -14.76619900 -0.61331100
H 4.57249000 -14.09894700 -0.77063000
H 3.48223500 -14.50594100 0.20529300
O 1.39662800 -17.15944300 11.97949600
H 2.19132600 -17.61652400 11.70364300
H 0.74807900 -17.85004700 12.11502400
O -0.15241100 19.80436600 -6.86743200
H -1.05198200 19.97566100 -7.14670500
H -0.21905000 19.58496600 -5.93827100
O 21.79815700 -8.07988200 2.93043500
H 20.84222400 -8.02905500 2.94348100
H 21.99769300 -9.01258700 3.00895500
O 1.95290900 -10.63673900 5.18157100
H 1.22470500 -10.79304600 5.78311000
H 2.74082100 -10.81334800 5.69530400
O -3.22539900 -26.59293500 7.81776100
H -3.48926900 -25.71577900 8.09621000
H -2.26883000 -26.56959700 7.79913800
O 3.89398800 28.01226300 -7.13824300
H 3.41793200 28.09962700 -6.31222900
H 3.64157000 28.77929700 -7.65191700
O -2.07973000 9.15765200 -26.59936700
H -1.87074000 9.74962000 -27.32218000
H -2.16859000 8.29477600 -27.00367700
O 5.02702800 18.89883300 -2.11117100
H 5.92272300 19.10310500 -2.38055000
H 5.03298800 17.96058400 -1.92256900
O -16.68073100 -18.18843100 -11.98774500
H -16.83161200 -19.11747200 -12.16290300
H -17.34759000 -17.94597300 -11.34553700
O -12.29394200 23.72112000 1.62702800
H -12.02679000 22.82248900 1.43298400
H -12.85880200 23.65093700 2.39639400
O 7.96620200 -20.14392900 -7.23319500
H 7.86838200 -19.28189100 -6.82836900
H 7.33368900 -20.15352000 -7.95135400
O -1.55399600 -9.01949300 -15.73324400
H -0.98434200 -9.58651700 -15.21310900
H -1.08742200 -8.18592000 -15.79141000
O 3.36320600 7.84879100 8.80926100
H 4.29485000 8.00471900 8.96510400
H 2.96090700 7.86395800 9.67750200
O -22.96427700 13.01867300 11.41342400
H -22.08290400 13.31748900 11.63803900
H -23.54955800 13.69400300 11.75590500
O -3.88126500 7.92221400 4.29608600
H -3.04555500 8.24184600 3.95551900
H -4.18226700 7.28131200 3.65222300
O -7.93588200 -8.60584000 -7.25683000
H -7.23011200 -8.92622900 -7.81879100
H -8.71015500 -8.58534800 -7.81896800
O -9.77594900 -5.24371900 -3.42041600
H -10.36116100 -4.96244700 -4.12396100
H -8.90073000 -4.98396700 -3.70753800
O -8.75760100 -28.26442100 4.86957300
H -8.61435200 -27.59495200 4.20035500
H -9.49561900 -27.94316800 5.38730200
O -10.51782200 25.07142700 1.17692900
H -10.12672100 25.93763800 1.29217000
H -10.30669700 24.59551700 1.97995600
O -4.31298300 26.76495900 4.84516200
H -3.66375200 26.60069900 4.16099900
H -4.85629900 27.47584300 4.50550300
O 9.70830300 20.37917700 10.04294700
H 10.54460600 20.12209800 10.43162400
H 9.08296700 19.71924800 10.34188700
O -22.55196800 12.54088000 7.63827800
H -23.46898900 12.81415300 7.60737300
H -22.46737600 12.04940100 8.45510700
O -15.64780000 10.66981400 -8.15561600
H -15.53565800 10.60238200 -9.10400400
H -15.43681200 9.79923200 -7.81873800
O 2.89460500 -19.68270800 -18.07249800
H 3.09826000 -20.61073700 -18.19018100
H 2.98335500 -19.52693000 -17.13240600
O -4.76019200 11.62314100 3.86452400
H -5.42822800 11.18444000 3.33742600
H -4.92008700 12.55830000 3.73871300
O 8.01915900 12.96931800 -21.00645900
H 7.88254900 12.33089400 -20.30623400
H 7.21889200 12.93736900 -21.53035700
O -16.61399600 -17.97992100 5.92526500
H -15.86783000 -17.61204100 5.45148900
H -16.95902900 -17.25456900 6.44558600
O 7.24030900 18.09707100 15.12728600
H 7.60790400 17.51768100 14.45964600
H 7.98113500 18.33357500 15.68510300
O 16.33319200 -11.15694800 -16.95873800
H 16.65817700 -10.47012700 -17.54116700
H 16.82491300 -11.94114100 -17.20198300
O 4.78788800 -6.53789600 1.59215100
H 5.64923200 -6.43948100 1.18599300
H 4.29591200 -7.10214500 0.99591300
O 16.89886800 -5.96797900 -22.48293600
H 17.20030100 -6.75156100 -22.94304500
H 16.09979500 -6.23820900 -22.03085800
O -25.28923400 10.78154300 8.14346600
H -24.38048700 10.96894700 8.37930600
H -25.81403200 11.34166800 8.71509900
O -0.77550000 -11.35379100 -10.95689300
H -0.17092700 -10.62375100 -10.82237500
H -1.62109200 -10.94462400 -11.13985100
O -17.65828600 13.15790300 13.90401400
H -18.15559400 13.28309500 14.71245300
H -17.08705600 12.40999000 14.07791100
O 18.19266200 -1.51200100 -15.66630700
H 18.61004900 -1.77780900 -14.84673600
H 18.75970300 -1.85634800 -16.35609500
O -15.09843300 -5.58591300 21.64958200
H -15.05473300 -4.73595600 22.08801700
H -15.94902600 -5.94850100 21.89643700
O 27.05809500 -12.86529200 1.54164100
H 27.01758900 -13.02799800 0.59906500
H 26.22426600 -12.44783200 1.75698400
O 10.20406100 -1.13367600 27.55967500
H 10.59452700 -1.88648500 28.00394700
H 10.30690900 -0.40456300 28.17101300
O -10.05177000 -12.44452500 -22.88049300
H -10.68442700 -13.14851400 -23.02439100
H -10.11557200 -12.24106100 -21.94751500
O 5.96192000 -20.00108100 2.08985900
H 5.54942000 -20.83952400 2.29822900
H 5.99544800 -19.97235000 1.13384300
O -13.75749600 -10.24894500 -24.41209600
H -13.76025800 -10.57113900 -23.51057200
H -12.90749700 -9.82263500 -24.52016200
O -1.77088200 -26.73623600 5.17091000
H -2.29617900 -27.31173800 5.72716800
H -1.69934800 -27.19720400 4.33526100
O -14.15710300 -25.08135700 -2.39898100
H -13.63373400 -24.91525200 -1.61472600
H -13.53982700 -25.01501400 -3.12732500
O 3.86215100 15.30645500 -16.76113800
H 3.15744500 15.33778200 -16.11385900
H 4.22458300 14.42354900 -16.69016200
O 2.45794900 -5.72039700 -1.37156100
H 2.42623100 -5.08854000 -2.09011000
H 2.54259500 -6.57401700 -1.79592500
O -13.84849300 7.28686300 4.11298200
H -14.08990400 8.21240800 4.07238900
H -13.52003400 7.07798900 3.23868000
O 25.96520700 6.69877800 11.43650400
H 26.51328000 6.93424000 12.18532700
H 25.08186800 6.97569400 11.67929400
O 2.80693900 -17.79177300 -6.68830300
H 3.31351200 -17.32031000 -7.34986800
H 2.43090200 -18.54025500 -7.15121500
O -11.06035800 12.80243000 1.73737700
H -10.82131400 12.95959900 2.65100600
H -11.67641300 12.07056000 1.76492200
O 29.25775100 3.90820900 3.36370200
H 29.41783600 4.85131100 3.32503900
H 29.67688100 3.55349900 2.57984800
O -10.41579100 -16.85425000 6.72106900
H -10.41580100 -16.73379600 5.77130500
H -10.04600700 -17.72592900 6.86018200
O -9.81322600 11.22129200 20.35696200
H -10.38386300 11.53326200 21.05953600
H -9.06726900 10.82081700 20.80315100
O 8.74813800 17.81746700 22.49524400
H 8.28154500 18.22981200 21.76804100
H 9.41782800 17.27238200 22.08255200
O -3.70166000 -12.93037300 -26.02312800
H -4.23295400 -13.72603000 -26.05801200
H -3.40035000 -12.79417000 -26.92122500
O -14.17794300 13.21283100 14.45390600
H -14.90140400 12.63839700 14.20252600
H -13.54926800 12.64116400 14.89422600
O -20.00124700 -12.79938700 16.96438100
H -19.70867000 -12.29164500 17.72145400
H -20.35796800 -13.60807500 17.33138500
O -7.86451100 -3.52834800 -2.09738800
H -8.41036600 -3.07427700 -2.73958900
H -8.41271200 -3.60546600 -1.31671800
O 9.38118100 -28.20271700 -1.43008500
H 8.84452300 -28.65610300 -0.77970000
H 9.28792900 -27.27291800 -1.22345600
O -20.65590000 14.97436300 4.03322800
H -20.44507500 14.85357000 3.10720200
H -20.95481800 14.11611700 4.33319300
O 2.98532500 12.03879700 16.77309000
H 2.05280700 11.82673300 16.81782300
H 3.42994100 11.19247500 16.72868500
O 12.02652800 -6.34038500 1.43085600
H 11.33054700 -6.31689900 0.77387700
H 12.54670700 -7.11363000 1.21308700
O 20.66476300 -12.61715100 14.29605700
H 21.41861300 -12.26046000 13.82590600
H 20.06171100 -11.88030300 14.39249700
O 14.38432000 6.60002100 24.05568900
H 14.14697100 6.02722800 24.78516500
H 13.89778900 6.25969900 23.30509900
O 22.79124300 6.71407400 -8.23670600
H 23.49096900 6.41113900 -7.65776200
H 21.98681300 6.60905800 -7.72898500
O 12.18086100 -21.33184500 -5.19105800
H 12.19916000 -20.99723500 -6.08786500
H 11.56431300 -20.76513600 -4.72778200
O 25.58518400 -11.53950500 4.67581800
H 25.32334700 -10.78794600 4.14368700
H 26.05071500 -12.11938200 4.07337300
O 9.87431100 -18.00827000 -11.23350700
H 9.18602800 -18.63918800 -11.02191300
H 10.34176700 -17.86638700 -10.41054200
O -1.32911100 26.60586800 5.49903300
H -1.78630200 27.31886000 5.05273600
H -1.25390900 25.91177100 4.84444000
O 9.70015900 -5.10401000 -7.77719100
H 8.93173800 -5.04621600 -7.20908100
H 10.37269100 -5.52506000 -7.24208900
O -1.08233300 4.30400600 13.03422500
H -1.90768200 4.78781000 13.07020100
H -0.79020400 4.37977400 12.12602000
O 6.36891300 18.66706700 -22.52599200
H 5.56824400 19.17423200 -22.39080700
H 6.14055300 18.01571200 -23.18894400
O -6.26402700 2.36214600 -1.43407100
H -5.85743300 1.66736300 -0.91588100
H -5.87226500 3.17346300 -1.11126300
O 7.80608000 -10.96381900 -21.82736800
H 7.00845000 -10.52518200 -22.12392700
H 8.32977100 -11.08722800 -22.61884400
O 18.42376000 -17.66503200 7.00791800
H 18.93002700 -18.31382900 6.51871700
H 18.74066800 -17.73132700 7.90852400
O -13.18242500 -20.09788600 4.05139400
H -13.42550600 -19.54743500 3.30676200
H -12.49821000 -20.67790800 3.71771600
O 13.07800700 -19.11358900 -6.80728100
H 12.51487500 -18.81739100 -6.09194200
H 13.82023400 -19.53902900 -6.37830800
O 10.40649800 -18.56897000 2.71642800
H 11.17926900 -18.91712200 3.16160000
H 10.55915400 -17.62611300 2.65614700
O -14.87916500 10.07419700 15.43963600
H -15.54400600 10.55572900 14.94701600
H -14.26041500 10.74078300 15.73750800
O -6.08560900 25.90244100 3.58372400
H -6.12800800 26.58028000 2.90896600
H -5.31040900 25.38492700 3.36656000
O -8.14584600 7.49563800 9.20493000
H -7.32991700 7.91355300 9.48091800
H -8.73634800 8.21918400 8.99587000
O -7.77259200 17.80441700 -1.44073800
H -7.61722900 17.07875500 -0.83589000
H -8.16488800 18.49368000 -0.90507400
O -0.68158400 -29.46392600 -4.77750800
H -0.22151700 -29.37254900 -3.94291100
H -1.60128800 -29.58380700 -4.54152000
O 1.27926400 18.20280000 -16.60624100
H 0.45100200 18.13279100 -17.08126100
H 1.42025000 19.14239600 -16.49135800
O -9.40172800 -22.86983900 -7.80992300
H -8.48065600 -23.12393000 -7.74970300
H -9.46141600 -22.04061900 -7.33584600
O 12.98063600 -6.65812500 22.98536300
H 13.29708200 -6.65636300 22.08180200
H 13.65812600 -7.11431400 23.48417800
O 2.30628200 16.66862300 -14.04229000
H 1.94826600 17.30156100 -13.41957300
H 1.73200100 16.72062700 -14.80610600
O 6.48161500 -20.19729500 -1.87531500
H 6.34712400 -19.45115400 -2.45990700
H 6.67690700 -20.93370000 -2.45452600
O 23.75054200 -0.33407400 10.46706500
H 23.00205000 0.21079700 10.71086400
H 24.51423100 0.12156100 10.82075000
O 4.17811700 21.35765900 -11.41393600
H 4.48283400 21.61053900 -12.28557900
H 4.23295000 20.40229900 -11.39989100
O -27.10054800 -3.45444000 4.58379900
H -26.71602000 -4.11151200 4.00331900
H -27.52892100 -2.82858100 4.00009100
O 9.93728300 12.84283400 10.32894600
H 10.25678900 12.34065600 11.07880900
H 9.48958600 12.20338300 9.77524300
O -11.77255000 13.19664200 7.40934000
H -11.63915300 13.15432800 8.35642800
H -10.93646100 13.49846300 7.05468900
O 5.77947000 -18.06763200 19.18210800
H 6.58959900 -18.38560700 18.78317800
H 5.61435400 -17.22141000 18.76670100
O -17.90478000 9.37162300 5.02631100
H -17.79338600 10.30517000 5.20698700
H -17.03642800 9.06425000 4.76668900
O 26.70822200 -0.07777000 10.47192100
H 26.95686700 -0.50925600 11.28957500
H 26.84318200 0.85581600 10.63353700
O -12.97061200 4.04520900 2.85324900
H -13.01578800 4.99520900 2.74360800
H -12.03660600 3.83758800 2.83219100
O -5.45367900 10.98929600 -25.04342300
H -4.78456400 10.42099600 -24.66147500
H -5.45596700 11.77301300 -24.49415200
O 9.39467600 -10.08165200 -9.12686100
H 8.95302300 -9.37506300 -8.65544000
H 8.86299100 -10.22767800 -9.90910400
O 6.44001400 18.19062400 22.97057900
H 6.33141400 17.39598600 23.49337900
H 5.65636500 18.23592000 22.42307600
O 8.06852600 -7.58767400 24.74386600
H 9.00650400 -7.71709900 24.60241400
H 7.73062700 -8.45356100 24.97185900
O -0.02160100 -18.25166300 -23.81254800
H 0.49565200 -18.75454600 -23.18316700
H -0.41084000 -17.54176600 -23.30219900
O 8.18244900 7.68734000 -25.06385500
H 8.83058400 8.09848900 -25.63607900
H 7.88846300 6.91107800 -25.54020200
O 25.34931100 1.32603800 15.31084500
H 25.24095800 0.95012200 16.18463500
H 25.61089200 2.23404700 15.46254500
O -5.50395300 -2.87204200 -5.07070300
H -5.96670400 -2.11119800 -5.42218700
H -5.39964300 -3.46421900 -5.81525800
O 16.79898700 13.74922100 7.97103700
H 17.09015600 14.65226600 8.09868000
H 17.38931100 13.38987800 7.30899000
O -4.58186300 17.95703600 5.70002500
H -5.14382300 17.89031400 6.47223700
H -4.80403200 17.19495800 5.16542800
O 4.44396600 -17.83163700 4.49386700
H 5.01215700 -17.83540800 5.26439100
H 3.94910700 -17.01475900 4.55503200
O -1.88875800 6.09699600 11.30225200
H -1.76137800 6.68447900 10.55713400
H -2.75723100 6.31234200 11.64181000
O -4.51392200 25.09007200 14.19229200
H -3.92574500 24.69871200 13.54619000
H -5.31240000 24.56410300 14.15100100
O -8.91735500 -0.83461800 0.85079100
H -9.19133000 -0.82242700 1.76804200
H -8.92433100 0.08269000 0.57799800
O 1.01287900 2.72190800 -6.10699500
H 0.10293300 2.72143700 -5.80940500
H 1.46180500 2.10232600 -5.53210400
O -4.11701100 15.47176700 15.95447800
H -3.34593900 15.18414800 15.46531100
H -4.85547500 15.03149600 15.53406300
O -15.35930700 21.11695900 -14.09232300
H -14.65296300 21.15379800 -14.73752400
H -16.09570100 20.71618400 -14.55386500
O 10.63788400 -21.87857300 15.17455700
H 10.90572200 -22.53672800 15.81616200
H 10.62466500 -21.05259500 15.65777800
O 7.42860600 21.78769100 -5.02503600
H 6.99105400 22.63866000 -4.99401000
H 6.74148700 21.14884900 -4.83618100
O -2.11155800 -14.01842900 -19.81583200
H -1.71990700 -14.14036100 -18.95078600
H -3.01919900 -13.76842900 -19.64377600
O -8.15194200 7.89033900 -21.28312700
H -7.40557300 8.42881700 -21.01943000
H -7.77678700 7.19354600 -21.82132400
O -7.59303800 -20.14106200 -20.89898000
H -7.02602800 -19.58427400 -20.36508000
H -8.36882500 -20.29392100 -20.35980800
O 17.40424500 -23.26598500 4.50454600
H 17.29243700 -23.95958700 5.15491400
H 17.36386800 -22.45008600 5.00314000
O -9.98329800 -1.00204800 28.14625400
H -9.41792500 -1.59421000 27.65000800
H -10.61119600 -0.66553900 27.50717400
O -7.25058700 7.79668200 17.41099400
H -7.92560200 7.57958300 18.05425500
H -6.89218600 6.95364800 17.13393600
O -5.96730800 4.24753400 8.65222800
H -5.79049700 4.93662500 9.29289500
H -6.32673500 3.52168800 9.16200900
O -17.56055000 -16.25553200 -7.55667000
H -17.90948300 -16.45143400 -8.42640000
H -17.69920100 -15.31579900 -7.44007100
O 16.71200000 11.06483000 19.07079300
H 17.47925000 11.13366200 19.63925700
H 16.36335200 10.18796800 19.23040000
O -6.11880100 -4.79849500 -22.11782600
H -6.26179500 -3.91154900 -22.44864700
H -5.19627200 -4.98270400 -22.29367800
O -7.02230800 -8.85360400 22.97691300
H -6.62330400 -8.00839000 22.76961400
H -7.86198400 -8.85038500 22.51772900
O -11.16271600 4.19084700 16.19740300
H -11.98038900 4.68377900 16.12675500
H -11.30187600 3.40356500 15.67134300
O -2.56303600 14.83960000 -25.65635500
H -2.88982900 14.09047100 -25.15778300
H -3.04435200 15.59316100 -25.31518300
O 13.55300900 23.37533700 4.12767700
H 13.59937100 24.02004600 3.42144400
H 13.57574300 22.52516000 3.68881600
O -21.76268200 16.51878200 -12.25204500
H -22.41006600 15.82829200 -12.10824600
H -21.82654600 17.08257700 -11.48134800
O -27.17596300 4.48100900 11.41029200
H -27.46690000 5.22046600 10.87632400
H -26.83714400 3.84146900 10.78410700
O -6.47198700 3.46814200 1.39473000
H -5.58254300 3.25881000 1.10901800
H -6.97926800 2.67408100 1.22725100
O -2.78752100 -20.50189600 8.30784800
H -3.14586800 -20.28783000 9.16943100
H -2.98530700 -21.42962000 8.18086400
O -25.83040300 4.72859900 4.16424800
H -26.01880700 5.52463100 4.66163900
H -26.02645800 4.95263700 3.25469500
O -8.38286000 3.99747000 -5.78938800
H -7.91853600 4.60275800 -5.21094900
H -9.15360200 3.72264500 -5.29305600
O -4.69633900 7.63227900 -27.78963400
H -4.34560900 6.93464900 -27.23568200
H -4.32010500 8.43951400 -27.43929700
O 8.26007700 -15.46104600 15.59079300
H 7.60469100 -15.12482600 16.20233900
H 8.74844500 -16.11746200 16.08731300
O -24.20046300 -4.09456100 -7.01539900
H -24.49684300 -4.44738500 -7.85458700
H -23.24501300 -4.13421700 -7.05360300
O -5.46760700 16.30537100 -16.96621400
H -5.49398500 15.46567400 -17.42531700
H -5.42066300 16.96469500 -17.65831600
O -0.50765800 16.75031600 -21.66773600
H -0.68124500 16.27934400 -22.48297500
H 0.44309900 16.85633000 -21.64055800
O 1.36721800 -12.71767600 -18.80738900
H 1.93366200 -12.57796000 -19.56645500
H 0.91012700 -13.53903200 -18.98727900
O 1.47392900 -1.95223700 2.43543600
H 0.86960100 -1.96429900 1.69300500
H 2.34623000 -2.00795900 2.04569000
O -22.40370600 3.52211700 -3.19354900
H -22.99052300 3.07114100 -3.80086200
H -22.11765300 4.30624500 -3.66177400
O -25.95199300 8.06373100 6.12068800
H -25.02945800 8.00940800 5.87060700
H -26.41519900 7.52878100 5.47633900
O 7.91088200 0.45388100 -28.89418900
H 8.30272100 1.32207800 -28.79796300
H 7.00745200 0.61837700 -29.16376700
O 0.39695000 6.60915700 -24.63829100
H -0.15564000 6.48533300 -25.41022000
H 1.17533900 7.06283700 -24.96109500
O 6.32358300 13.85904900 13.69501300
H 6.98439200 14.08605900 13.04052200
H 6.00253900 12.99611700 13.43386700
O -22.91091700 -11.16035000 -10.57057700
H -23.48998600 -11.62635900 -11.17396500
H -22.63540000 -10.37726300 -11.04679400
O -25.41860900 7.27246400 -5.99534400
H -24.83698300 6.72132500 -5.47139700
H -26.26793900 7.22308400 -5.55703200
O 25.43578400 6.09988500 -3.92181000
H 24.62082500 6.52269000 -4.19317500
H 25.33008800 5.18000200 -4.16380200
O 1.43601000 -26.63045600 8.01373100
H 1.11386500 -27.37961500 7.51218700
H 1.52059700 -26.95128400 8.91141200
O 3.55321800 -28.70130000 7.80749800
H 4.30170800 -28.48775000 8.36492300
H 2.79378700 -28.66755100 8.38891200
O 4.08958700 -22.80107100 16.69379300
H 4.15205500 -23.40988600 15.95758400
H 3.49038200 -22.11580700 16.39835400
O -16.86051700 17.19063500 17.89645600
H -17.26884500 16.39873700 18.24678200
H -16.09552100 17.34115000 18.45147200
O -15.26175200 -20.34079200 8.98687700
H -15.19720900 -21.24430000 9.29682700
H -16.19800000 -20.18907700 8.85904800
O -15.36620900 14.81329300 -10.92873400
H -15.73076200 13.92835700 -10.90523700
H -16.12081000 15.39457500 -10.83596900
O -9.63457300 -19.11152400 0.86366100
H -9.66168800 -20.06851200 0.86450500
H -10.17927800 -18.84765400 1.60500200
O 4.33452200 -13.83646500 13.13934500
H 3.96744500 -13.22246400 13.77559900
H 4.41797900 -14.66377100 13.61317600
O -2.64433300 -1.43421300 24.07506700
H -2.26672900 -0.76312000 24.64393500
H -3.21092200 -1.95275200 24.64604000
O -0.00448000 9.46777400 17.62228700
H 0.19518200 8.53791000 17.73206100
H 0.24451500 9.87422000 18.45217800
O -12.76626500 -17.58343400 7.73319200
H -12.59168800 -17.11227900 6.91826900
H -13.04977300 -18.45549600 7.45924500
O -7.71288500 -22.28152700 -15.07634100
H -8.20402100 -22.29782700 -14.25470700
H -6.95653400 -22.84779600 -14.92406400
O 1.47974900 -29.39634500 -1.61079000
H 2.13154700 -29.14387500 -2.26499200
H 0.83520700 -29.91585500 -2.09099000
O -10.92656400 -19.88604300 -9.63820800
H -10.51440200 -20.45376400 -8.98676500
H -11.02779900 -19.04057300 -9.20134500
O -6.31038200 -15.63306400 -1.78505700
H -6.63878300 -14.86040500 -2.24517800
H -5.84796600 -16.14049300 -2.45184400
O -2.60490000 -19.82564500 -11.90406700
H -2.61952900 -19.32626800 -11.08738500
H -2.88191200 -20.70847800 -11.65955400
O 5.13494700 -11.68827700 -1.93547600
H 5.66261200 -12.48706800 -1.92741100
H 5.12181300 -11.40934100 -2.85086700
O -24.58481800 5.24023500 0.46159700
H -24.32317600 4.60979300 1.13290000
H -24.10566500 6.04107200 0.67370700
O 7.02277700 -8.30483100 5.06346300
H 7.63573200 -8.55410200 4.37157300
H 6.28831900 -8.91189400 4.97422600
O 4.42859500 -24.44494500 9.05705800
H 4.32679700 -25.39007100 8.94332300
H 5.15183900 -24.34643900 9.67603500
O -0.67213800 0.52071400 3.12102200
H 0.16248800 0.90954000 2.85877100
H -1.18490200 0.46767800 2.31468700
O -0.47788000 -25.59187900 -15.63860900
H -1.20378800 -25.89836900 -15.09484100
H 0.31248400 -25.87485700 -15.17908200
O -8.96029400 -11.49288500 -12.07181900
H -9.03235400 -10.82054600 -11.39408000
H -9.28545500 -12.29402900 -11.66150700
O -13.23219800 -22.51490600 13.59463500
H -12.59719600 -22.88408500 12.98059900
H -12.98071600 -22.86275300 14.45001600
O -5.08099000 7.60254700 13.01691000
H -4.40206400 8.27624800 12.97509500
H -4.67694500 6.82013200 12.64208800
O 11.18786500 4.67659500 -22.75358600
H 11.79498100 4.97595000 -23.43060700
H 10.51137700 4.19061100 -23.22486100
O -10.59226600 9.49120700 21.84761700
H -10.88304700 9.39031100 20.94106900
H -11.31734100 9.92916200 22.29301500
O 3.57602500 28.82427100 7.05213100
H 2.93433800 29.15671200 6.42421100
H 3.42071200 27.88063800 7.08889500
O -11.65158600 8.15063800 -2.77406800
H -11.15532400 7.61100700 -3.38976600
H -12.51532100 8.25166000 -3.17366100
O 1.13000100 16.31099800 -1.43282500
H 2.03585400 16.49227500 -1.68408500
H 0.61614900 16.47488200 -2.22340400
O 15.21670900 20.43076800 3.62223700
H 14.95428400 20.87302400 2.81470600
H 14.51444400 20.61592600 4.24550000
O 25.80284800 -8.34049500 -5.53072400
H 25.34864100 -7.53953600 -5.79287500
H 25.73891700 -8.92096100 -6.28893800
O -5.66717100 -23.05624600 -8.48425100
H -5.33145700 -22.37949200 -7.89615100
H -6.27520200 -23.56820500 -7.95122800
O -0.29756300 8.41887700 22.12767900
H -0.30164700 7.56818100 22.56683900
H 0.05100100 9.03059300 22.77592500
O 12.27341900 -13.00624800 9.88225800
H 12.40999000 -13.35057400 10.76506600
H 11.32602400 -13.03359500 9.74955100
O -9.57383100 6.90967400 16.23511200
H -8.81727300 6.32434500 16.27476700
H -9.20714400 7.79220100 16.28615100
O 23.97617600 -10.53483800 -4.25524000
H 23.11556000 -10.69576400 -4.64254500
H 24.50413800 -10.17273700 -4.96661700
O -24.76392300 5.40321000 -9.01177900
H -24.72192100 6.09566000 -8.35199800
H -25.20332300 4.67280300 -8.57663400
O -13.25287000 0.92548800 -26.23578700
H -13.65226100 0.19785800 -26.71286600
H -13.38095900 1.68983600 -26.79728700
O -4.33422900 -7.68841100 3.19763300
H -5.05831200 -7.23229300 2.76842100
H -4.67789100 -7.95026000 4.05159400
O -5.69923500 3.96927700 25.98089200
H -5.33080900 3.48468100 25.24198000
H -5.23597400 3.63802200 26.75003200
O 6.32382500 -19.95836700 -14.56482500
H 6.49935900 -20.07036900 -15.49928000
H 6.23164600 -19.01378600 -14.44159800
O 3.79613200 4.29699300 -2.71624300
H 3.35127600 5.14166500 -2.78831300
H 4.31624800 4.22194200 -3.51609600
O -0.44776900 22.00360600 -6.55075200
H -1.19539900 22.56776800 -6.35242300
H -0.08313200 21.76679400 -5.69818100
O 6.84338700 4.98905400 6.66715200
H 6.57089000 4.91940500 5.75202500
H 7.22043200 4.13530600 6.87897500
O 7.29093200 10.48788100 -23.29390900
H 7.80970400 10.67167300 -24.07727200
H 6.95015100 11.33835100 -23.01734800
O 16.14859700 -17.67167700 -9.42462400
H 17.04960000 -17.99520600 -9.43375800
H 16.12280300 -16.99158000 -10.09746900
O -8.28729300 -10.21263800 26.20646200
H -7.82253400 -10.48053000 26.99942800
H -7.60529600 -9.89460100 25.61515000
O -13.29399800 4.70518100 11.53911700
H -13.55391600 4.06027100 10.88101700
H -13.09294700 5.49835200 11.04275600
O -19.45212600 -14.04663900 -14.79894000
H -19.32528500 -14.99475000 -14.83842300
H -19.23157100 -13.80447800 -13.89970200
O 12.15937200 -26.40871000 -6.96275400
H 12.55326500 -25.71070500 -6.43911400
H 11.26879500 -26.10929400 -7.14480000
O 0.14906200 -8.93207100 -13.44483300
H 0.19765800 -9.50782200 -12.68147700
H -0.46911600 -8.24458300 -13.19758500
O 1.90640800 5.96112500 -29.33994700
H 1.17729500 6.57204300 -29.23161400
H 2.62411500 6.33953900 -28.83238800
O 21.23052000 -15.86970600 -6.27099000
H 21.51504000 -16.68045400 -6.69324300
H 22.01802100 -15.32845400 -6.21802300
O 12.04556000 20.08367700 2.68003900
H 11.98343700 20.33012600 1.75701900
H 12.97528900 19.91200400 2.82852900
O -19.85556900 22.24675200 3.33155600
H -20.40751900 21.64887100 3.83598900
H -19.25805600 22.63219800 3.97212300
O 16.92045800 -14.06536800 11.42048700
H 16.84771800 -13.53514300 12.21429600
H 16.93812900 -14.97130800 11.72851100
O -18.74743600 19.39003100 6.82333000
H -19.43670100 19.71101100 7.40509200
H -18.34910300 18.65692200 7.29215600
O -22.93268400 4.39903900 2.97776400
H -22.44921500 4.16751700 3.77099600
H -23.82439600 4.57923000 3.27491300
O 5.47392800 13.69528100 23.34901800
H 4.98947700 13.22620400 22.66943400
H 6.29754600 13.21666300 23.44117900
O 12.53817100 -6.11003900 -13.56113300
H 13.12624700 -5.83446600 -14.26454400
H 11.65774200 -5.92553200 -13.88781200
O 3.67956300 10.04835200 24.78770600
H 4.56511400 9.74702900 24.58382700
H 3.18652000 9.93608100 23.97516600
O -20.72134400 -4.60388600 19.54071900
H -21.13152300 -5.02906900 20.29406900
H -19.85601100 -4.33515700 19.84877800
O -3.58927900 17.58917300 -14.75341600
H -3.18439600 18.12476900 -14.07094400
H -4.30497400 17.12909500 -14.31520900
O 9.49730700 22.06270600 -10.28756100
H 9.45377400 22.00632900 -9.33284100
H 8.95445700 22.81701400 -10.51614300
O 9.63421500 12.27430500 -23.07077400
H 9.82323300 12.95391800 -23.71804500
H 9.79307100 11.44761400 -23.52603600
O 8.22356900 -3.75010000 -20.80193300
H 7.97609100 -3.26533800 -21.58953800
H 8.40330800 -4.63990800 -21.10500600
O 4.02677900 -21.18966500 -5.92959200
H 3.44621500 -21.44807100 -5.21353800
H 3.94854700 -20.23718900 -5.98045200
O -1.35047300 -15.83268600 -16.92866300
H -1.84541400 -15.01337500 -16.91060600
H -1.77575900 -16.39331500 -16.28001500
O 5.82202600 -12.09551000 -23.10567300
H 6.35631000 -12.56215900 -23.74858900
H 5.02974900 -11.84228200 -23.57905400
O 8.02059200 -26.79051100 0.76751300
H 8.59777600 -27.45707500 1.14049200
H 7.16287100 -26.95957400 1.15693500
O 6.20758100 18.04555000 -13.83222700
H 6.42704700 18.80037800 -14.37869900
H 6.54957600 17.28823400 -14.30702100
O 24.62713800 -10.19239100 -8.35388300
H 24.87470400 -9.45323300 -8.90968700
H 24.20036200 -9.79833500 -7.59329100
O 0.39486600 14.11448400 -12.75367800
H 1.23232800 13.68636500 -12.57497800
H 0.37807300 14.87688100 -12.17541800
O -2.33559700 13.92356800 -4.95195100
H -2.44926700 13.23238800 -5.60456900
H -2.54610800 13.51065500 -4.11463000
O 12.38019000 -21.92213600 4.93913700
H 12.48697900 -21.93002800 3.98777200
H 12.73159300 -21.07769200 5.22082300
O -8.91132700 17.40212500 -13.24504700
H -8.84642100 16.82693000 -14.00760900
H -9.25557400 18.22747300 -13.58594400
O 7.91810900 -1.93627300 23.57283100
H 7.58618500 -1.32861000 24.23399100
H 8.02196800 -2.76946300 24.03209600
O 13.97683700 6.38982800 -24.68572700
H 13.61719000 6.48345900 -25.56802500
H 13.75487000 5.49725900 -24.42121100
O 2.79622000 -10.95548100 -26.84041500
H 3.10938000 -11.15905600 -25.95891100
H 2.47711200 -10.05473500 -26.78803200
O 21.19559100 -14.43686100 1.60368300
H 21.86766900 -14.25759700 0.94585500
H 20.49350100 -14.87870800 1.12644200
O -10.91182800 8.75650200 9.62800000
H -11.08442300 7.95127500 10.11624400
H -10.58598700 9.37655900 10.28013100
O 16.19438400 -17.56672400 14.43292300
H 16.76472100 -17.41204500 13.67969500
H 16.45785700 -16.91394100 15.08128500
O -11.47831000 5.39915600 4.47463300
H -10.59498700 5.16778400 4.76232900
H -11.55913800 6.33611300 4.65210600
O -11.30061400 -16.36799400 -8.99631900
H -11.06656900 -17.01950600 -8.33502000
H -11.78345400 -15.69329000 -8.51929000
O 17.90231100 -5.92168400 -17.13333400
H 17.18990000 -5.28248600 -17.11191000
H 18.13088500 -6.06865800 -16.21569100
O 5.13618600 12.15168000 9.58748600
H 5.71288700 12.09769800 8.82521100
H 5.09580500 11.25941000 9.93120000
O 1.10453600 -3.06619600 24.43389500
H 1.91855700 -3.36100700 24.02521700
H 0.41014100 -3.36714400 23.84809300
O 17.57192500 -23.24105500 2.23044400
H 17.06634300 -24.01905100 2.46639200
H 18.48673500 -23.51991200 2.26620100
O 6.44884700 -22.89243200 -15.28407500
H 6.56034700 -22.14086800 -14.70159700
H 5.63145200 -22.72372000 -15.75238900
O 14.83261600 -1.26438100 20.84548500
H 15.33862800 -0.48512000 20.61468800
H 14.72786700 -1.74397700 20.02394200
O -15.13724900 -2.88744000 20.89981300
H -16.06532200 -2.66332600 20.97062900
H -14.89578800 -2.66178300 20.00165200
O 12.81172000 -12.59714200 18.41386200
H 13.23090700 -12.32698500 17.59663500
H 12.88194700 -11.83715600 18.99127600
O -3.50160000 -0.85472300 -24.05798000
H -3.75073800 -0.28293300 -24.78430500
H -3.18244600 -1.65634800 -24.47205100
O 1.98168900 5.72751600 -26.78932100
H 1.49956700 5.22772200 -26.13028600
H 2.67472500 6.17417000 -26.30340200
O -0.10546500 20.63260300 -11.48319800
H 0.09855700 21.01198500 -12.33818700
H -0.32105100 19.71771600 -11.66326000
O -4.88892800 25.28189500 -15.05711900
H -3.98803900 25.59794000 -15.12836300
H -4.88934400 24.70491200 -14.29357000
O 14.48826900 -23.67424600 -1.84863300
H 13.86101400 -23.94340500 -1.17731600
H 15.31592200 -23.55870600 -1.38220100
O -27.23839400 10.02285000 -1.65778400
H -28.03261600 10.54262400 -1.78271400
H -26.74061000 10.48869800 -0.98613400
O 1.93791600 -10.53698000 -14.55385200
H 1.04810800 -10.35782100 -14.85832900
H 2.05304000 -9.98029500 -13.78393900
O -12.86224500 -8.16045700 25.73326800
H -12.06409500 -7.70448600 25.46566800
H -13.50284600 -7.95942200 25.05126200
O -0.20413300 -14.89299700 8.16819100
H 0.48958000 -14.68619000 8.79473200
H -0.93191700 -14.31881100 8.40600800
O 21.92424500 -3.03899200 19.44238700
H 21.60652200 -3.92957600 19.59230100
H 21.13666200 -2.51786700 19.28727900
O -11.37424300 22.88417700 -0.67296600
H -10.43379100 22.79308900 -0.82728200
H -11.50120100 23.80737300 -0.45500100
O -10.76328900 6.38244500 -20.22615400
H -11.06723000 6.97870700 -19.54157100
H -10.36466900 5.64956000 -19.75722000
O -29.21000800 -5.42096200 -4.17246900
H -28.96646800 -4.78205900 -3.50235500
H -28.38030100 -5.71214300 -4.55024800
O -21.71592900 19.83018100 2.55439900
H -21.96836500 20.16312300 3.41578600
H -20.93717500 19.29709300 2.71338500
O -10.72202800 2.14666900 -27.93618100
H -11.22827200 1.98816300 -27.13921600
H -9.94590800 1.59326000 -27.85077900
O -15.47387400 -19.86541200 2.56991500
H -16.10454000 -19.69276900 3.26921300
H -15.25607700 -19.00390100 2.21455600
O -11.42686000 19.21440900 -2.08368000
H -11.93603700 18.41372300 -1.95638800
H -11.53776300 19.43405400 -3.00854400
O -3.46693500 -7.96323700 -2.79093800
H -2.54805600 -8.22566500 -2.84887100
H -3.80263200 -8.40698000 -2.01227400
O -0.10248300 5.45584200 24.28461600
H -0.97823500 5.33250000 23.91800000
H -0.17129600 6.23722600 24.83290300
O -10.59900000 10.20468700 25.22945500
H -10.61666900 9.52164900 24.55885100
H -10.31115000 10.99413600 24.77138200
O -1.28022500 19.48325500 -9.69807500
H -1.98531400 19.84750300 -9.16259900
H -0.77528100 18.93168000 -9.10082100
O -23.52417300 6.55986000 5.18255100
H -22.99072600 7.23560000 5.60132400
H -22.95624200 6.17365400 4.51605500
O -17.83242300 8.12391700 18.93669100
H -16.99098700 8.50864700 19.18272300
H -18.17080100 8.69074700 18.24378300
O 11.10660400 1.34622300 23.85518700
H 11.11060600 2.22127400 24.24355800
H 10.43565300 1.38080700 23.17361200
O 3.17909400 -18.94063500 23.04660000
H 2.73105500 -18.30822500 23.60863300
H 4.10478900 -18.70253900 23.09472400
O 21.16327100 18.72373700 10.07867200
H 21.66406600 18.08275700 9.57378400
H 20.25277600 18.43731000 10.00884900
O 0.34174000 21.76604700 -18.53259300
H 1.25721900 22.03891400 -18.46931300
H 0.03482600 22.12024800 -19.36701600
O 16.68237300 -12.55975500 20.75360900
H 17.06871200 -11.74965000 20.42039200
H 16.98967500 -13.24366200 20.15883700
O 13.93245500 -17.06640700 15.31056200
H 14.34226700 -16.41906100 14.73648900
H 13.92353500 -17.87749000 14.80264300
O 5.15262800 -23.30752000 -1.89893300
H 5.11463700 -22.35293400 -1.83660900
H 5.54798800 -23.59393400 -1.07578400
O -2.77409300 -29.86898100 -0.40102400
H -1.83997200 -29.94309400 -0.20484000
H -2.82477000 -29.83656700 -1.35616700
O 25.69511100 9.67096200 2.16273500
H 24.97010600 9.39331800 2.72295200
H 26.48483400 9.49250200 2.67303600
O 11.13116000 -3.69470900 -2.56909900
H 10.30028700 -3.33777100 -2.88343300
H 11.44413500 -4.25542300 -3.27872100
O -13.21848000 -17.86238600 -13.49392500
H -12.37967800 -18.18613000 -13.16504500
H -13.71333700 -17.61786200 -12.71210500
O 5.36118800 23.66534000 -10.25092000
H 4.75102100 23.42905500 -10.94979500
H 6.01871700 24.21826800 -10.67263500
O 11.83348400 14.57113500 4.68558700
H 12.46291000 14.26058600 4.03447700
H 10.99396700 14.59521000 4.22673200
O 0.12046500 8.10301400 9.66957800
H -0.52217300 8.47964000 10.27101800
H 0.83299500 7.79515600 10.22943700
O 1.72288800 -24.55107100 -17.15523500
H 1.28458800 -24.15950200 -16.39950400
H 1.67138900 -23.88733100 -17.84277700
O 11.44096100 -22.97686900 0.03363100
H 11.81501300 -23.74725300 -0.39433500
H 10.80440300 -22.63079800 -0.59162500
O 14.27565200 -26.28117600 2.35229200
H 14.80486400 -25.88073300 3.04232200
H 13.51064100 -26.63858200 2.80277700
O -6.87074500 -5.94885800 27.96814000
H -7.23858500 -5.34966500 28.61792800
H -6.76747200 -6.78115000 28.42916200
O -4.49540500 4.54716800 -27.60040600
H -3.69018500 4.83554200 -27.17026200
H -4.55498300 5.07686100 -28.39526000
O -11.09547600 0.39164400 0.41274200
H -11.06399800 -0.56413500 0.45811300
H -10.95957500 0.60035100 -0.51131900
O 7.95591900 -14.21024800 1.80588900
H 8.42734500 -13.56280500 1.28135300
H 8.33825500 -14.14600100 2.68088000
O 11.63952800 -0.93988700 -22.38782400
H 12.29097800 -0.61819800 -23.01127500
H 11.12625900 -1.58351200 -22.87590000
O -15.73889100 -8.36194400 -23.03575500
H -15.81670000 -9.04308000 -23.70400800
H -15.96736400 -7.54786700 -23.48408100
O 19.07224800 -20.30480800 1.46078100
H 19.92881200 -20.40024100 1.87761800
H 19.06212400 -19.41162800 1.11720700
O -13.50743200 -24.31968100 -6.95249000
H -13.65059600 -25.23307200 -7.20105200
H -13.40873900 -24.33456000 -6.00067300
O -14.26737900 19.98375400 9.44467600
H -14.88378900 19.97277800 8.71222800
H -13.41368800 20.15495000 9.04740900
O -10.77343900 17.07723100 -4.50791100
H -10.25398600 17.69239700 -5.02588900
H -10.81404000 17.46280100 -3.63292300
O 17.14553300 -6.14266100 -20.09964400
H 16.95701600 -7.08005200 -20.05145900
H 16.92561500 -5.80093100 -19.23317200
O 15.29999300 20.18163700 -11.47848400
H 14.98465900 19.27787800 -11.45985800
H 16.03519300 20.20011300 -10.86606500
O -8.04110900 -21.95795700 -10.05726300
H -8.44454300 -21.55294200 -9.28930100
H -7.44339000 -22.61690800 -9.70451200
O -15.47374300 -14.99356100 20.49756200
H -16.01991600 -14.84766300 19.72492300
H -15.17318500 -15.89894800 20.42103700
O 16.80714000 -17.47836300 17.17834300
H 16.29527700 -17.65224700 17.96848300
H 16.86495800 -18.32193300 16.73005200
O -17.79298100 -16.00576000 12.33144100
H -18.74954900 -15.98940000 12.36710500
H -17.51737200 -15.16124800 12.68746900
O 10.45620800 -18.65135600 -1.59992400
H 10.16115800 -19.05971900 -2.41401700
H 10.65873400 -17.74628900 -1.83604700
O -2.98761700 -3.14806200 -5.90040400
H -2.03703800 -3.07632100 -5.81200100
H -3.26776600 -3.66870300 -5.14783100
O -12.15114100 10.80404800 -25.07558100
H -12.12621600 9.97929300 -25.56109000
H -12.51503400 10.57693900 -24.22005700
O -20.80803500 -7.28242900 -9.60142300
H -20.59445900 -7.07190800 -8.69223200
H -21.04682100 -6.44569200 -9.99988200
O 20.97024000 20.67016200 -3.62350200
H 21.80518800 20.34087400 -3.29034600
H 20.76802600 21.42981000 -3.07764400
O 7.47648300 14.64860100 1.59949500
H 6.85043000 14.98747800 0.95935300
H 8.19289300 14.28715000 1.07793400
O -14.14379700 22.64934500 -1.95059700
H -14.17110900 22.36516400 -2.86441200
H -13.53107500 23.38441600 -1.93801500
O -10.93925500 7.17495400 12.55132900
H -11.49502800 6.73872000 11.90528100
H -10.95468500 8.10012900 12.30693300
O -1.52326800 -6.58844400 29.22793500
H -1.14094900 -5.99367100 28.58245900
H -1.57393000 -7.43528300 28.78497400
O -0.79019500 3.95312300 7.66719200
H -1.10441900 3.17030400 8.11998300
H 0.16130900 3.93229500 7.76780500
O -20.07330500 -15.75370900 -8.72368800
H -19.84788600 -15.30140200 -7.91056700
H -20.61467500 -16.49499200 -8.45288300
O -2.66374600 -24.09753800 4.20040800
H -3.44926900 -23.85373700 3.71043200
H -2.03530900 -24.38014400 3.53624100
O 26.10361000 -1.49722100 14.37174300
H 26.67745500 -1.18609300 13.67141200
H 25.99576700 -0.74652300 14.95547100
O -10.55809100 -26.58070200 4.02550800
H -10.89308700 -25.99900100 4.70812400
H -10.35453100 -26.00570600 3.28803900
O 23.73429800 -4.59467200 -9.88529500
H 23.03832900 -5.25055000 -9.84040800
H 24.50324700 -5.07053100 -10.19865000
O -4.78416700 7.46736800 -21.30690300
H -5.59418500 6.98419100 -21.14266700
H -5.00946400 8.38581000 -21.15985600
O -3.59237700 7.98853200 17.25854100
H -3.01067400 8.39433600 17.90158600
H -4.41229300 7.83574000 17.72791100
O 4.44360400 9.99593100 7.42554300
H 3.66208800 9.85564000 7.96043900
H 5.15568500 10.11482600 8.05381200
O -26.87539500 7.87632300 -1.33995400
H -26.90603900 7.87587100 -0.38307200
H -26.00407000 8.20559200 -1.55970500
O -15.11947900 15.16088500 -4.25462000
H -14.33017100 15.25941600 -3.72184700
H -15.02766100 15.80647500 -4.95512000
O 2.02405000 25.92386900 14.38878800
H 1.91826000 25.19635000 13.77552800
H 1.13491300 26.14821000 14.66269100
O -13.61939900 0.33018300 17.96363500
H -12.95089700 0.33893200 18.64890100
H -14.44784500 0.46277200 18.42408600
O -10.23892200 9.60134200 -23.47478200
H -10.47431400 10.52629400 -23.39984500
H -9.28221400 9.58679900 -23.45439100
O -13.11127100 5.88361800 24.94978100
H -13.79986500 6.08418400 25.58395400
H -13.55503200 5.85763600 24.10224400
O -2.68614500 20.90165400 9.68966700
H -1.90437400 20.61890100 10.16447900
H -2.39375200 21.63077000 9.14303000
O -3.55522600 18.53827200 22.85988500
H -3.49829800 18.27928000 21.93996900
H -4.47628000 18.42329300 23.09302600
O 0.89875200 -7.13521200 6.25819300
H 0.59808700 -8.01035400 6.01265400
H 1.42550600 -6.83721800 5.51681100
O -2.97006400 19.27643800 1.20499100
H -3.36487700 19.75977400 1.93098800
H -2.93502600 18.36751000 1.50254900
O -0.19303700 -12.58490000 20.68869700
H 0.02940200 -12.28432600 21.57002400
H -0.10636700 -11.81016600 20.13354700
O 19.77316800 11.24083400 -16.01327700
H 19.47470100 11.18157100 -15.10555000
H 20.72193000 11.35220800 -15.95527500
O -5.43744800 -13.38777200 -13.40787600
H -4.73789100 -13.82608100 -13.89271300
H -6.24909100 -13.70140300 -13.80635900
O 16.40544000 -5.36061100 -24.53882200
H 16.90908300 -4.56713600 -24.35633200
H 15.66902600 -5.06854000 -25.07576400
O 10.39553100 -10.00669100 -11.52308500
H 11.20920700 -9.71733600 -11.93632400
H 10.21058200 -10.86139900 -11.91191100
O -18.44329200 -20.52014600 2.72062300
H -18.06036700 -19.77012700 2.26521000
H -19.05426100 -20.14091300 3.35214200
O -12.36856200 14.20875200 5.55002600
H -12.50069000 13.84185400 4.67567400
H -12.07433600 15.10697000 5.39985100
O -12.63688500 -0.55792900 25.56455600
H -11.96791000 -0.51528500 24.88102300
H -13.44262500 -0.79900500 25.10784800
O -14.14356700 -14.96810300 -7.77767800
H -13.95557700 -14.69554000 -8.67597200
H -13.34903900 -14.76294400 -7.28518200
O 15.73650400 -15.58702100 16.83878200
H 16.61946500 -15.22400400 16.76695200
H 15.54666800 -15.59289200 17.77678300
O -11.50645000 4.64106400 0.85509200
H -11.32712800 5.40096600 1.40912600
H -12.43746800 4.70371800 0.64249800
O -1.96187600 -1.26573600 -7.12105100
H -1.62701900 -1.64662800 -7.93305700
H -1.19354800 -1.16508800 -6.55939400
O -11.19291200 -5.70026700 -0.24245000
H -11.90157700 -5.27809100 0.24347500
H -11.28513400 -5.38294400 -1.14062500
O -9.82999400 17.09158800 8.25525800
H -10.08046300 17.95225700 8.59152700
H -8.97497500 17.22464000 7.84640900
O -13.10762800 17.51895600 8.09130000
H -13.58716800 17.97872900 8.78065600
H -12.21163700 17.44559300 8.41953200
O -7.07636800 7.10039300 12.24020700
H -6.61332300 6.88070800 11.43157200
H -7.73490900 6.41359700 12.34293500
O -8.04399200 -15.82120500 -18.20005100
H -8.08312300 -16.12909400 -19.10571900
H -8.02568600 -16.61686000 -17.66852900
O 6.79129600 -18.25005300 22.28517800
H 6.17537300 -18.97354200 22.40250300
H 6.83950200 -17.82454500 23.14106200
O -16.92276800 7.39037700 22.87633000
H -16.70842400 7.22046800 21.95886100
H -17.84197200 7.65674000 22.87070800
O 9.35370100 -22.58460900 6.35967700
H 8.42783100 -22.55853300 6.11750600
H 9.52296900 -21.74281000 6.78233500
O 24.11773000 -5.85527400 -14.55418200
H 23.80788900 -5.02464300 -14.19277800
H 24.98860600 -5.97983800 -14.17738600
O -15.09274100 25.54074400 3.00527300
H -15.84432200 25.23207000 3.51164100
H -14.75009200 24.76039600 2.56988100
O -0.95670300 -16.06543300 -6.14898700
H -1.80992400 -15.93864900 -5.73365300
H -0.38305000 -15.41833100 -5.73899000
O 20.06292600 -20.56671900 5.53882200
H 19.11855100 -20.51853300 5.68847700
H 20.35723200 -19.65628900 5.51837700
O 3.31981300 7.77560300 26.24761300
H 4.04341800 7.88627400 25.63059600
H 2.81958800 8.58955500 26.19127700
O -6.46736700 24.20001300 -0.56886200
H -5.74436800 24.82699900 -0.59576900
H -6.20258800 23.49133400 -1.15502300
O 13.98674200 -15.77206500 11.05535800
H 13.71660500 -15.08949700 10.44079500
H 13.18094500 -16.04214100 11.49543500
O -8.69174600 -7.36167000 20.28925200
H -9.07993000 -7.46116900 21.15872000
H -9.06320700 -6.55024000 19.94354200
O -1.54230400 -17.07049900 -8.02252000
H -1.39051700 -17.97234200 -8.30571800
H -1.76227600 -16.59339000 -8.82245500
O -2.83502500 -23.09789800 -6.50036200
H -3.05761900 -23.34549200 -5.60274800
H -2.33604000 -23.83826700 -6.84501500
O -4.17349300 20.58500200 -9.39933400
H -5.06335300 20.93808700 -9.39285900
H -4.21303500 19.82439600 -9.97884400
O 2.67966300 -13.89420300 8.99554500
H 2.32119200 -13.31603500 8.32191100
H 2.67887200 -14.76567600 8.60000600
O -11.25550600 14.82154900 -14.62426200
H -11.77561800 15.44755700 -15.12840500
H -10.43216200 14.73952000 -15.10519000
O -15.70656100 -20.75459700 -14.91858300
H -15.50453900 -19.93609500 -15.37223900
H -16.02044500 -20.48801100 -14.05468100
O -10.98956900 26.12799100 -4.20094600
H -10.60492100 26.28620500 -3.33863700
H -11.37734400 26.96479600 -4.45649500
O 1.02981400 2.67825100 3.83689500
H 1.53002500 3.49249000 3.89491400
H 1.50744900 2.05464600 4.38361100
O 4.48640000 27.95854600 -1.64096300
H 4.27755600 28.23264200 -0.74775600
H 4.37602100 27.00789700 -1.64052400
O -13.59937700 12.83356600 -3.72163900
H -13.53282100 11.93782700 -3.39030400
H -13.45716400 13.39160500 -2.95725300
O -0.74881700 -25.12552900 6.94491300
H -0.42217500 -26.00334000 6.74663500
H -1.21328000 -24.84977800 6.15488000
O 23.07142700 -18.42375700 5.25006000
H 23.41120500 -17.80819900 5.89983100
H 22.49086700 -19.00577500 5.74008300
O 4.36829000 27.15983600 5.23982600
H 3.96685100 27.89992300 4.78410700
H 4.80801300 26.65626300 4.55500800
O -5.17435100 -14.87138400 -7.13618800
H -4.94479700 -14.30943700 -6.39586200
H -5.49146300 -15.68359800 -6.74164500
O 17.84244100 -1.68972200 23.93921100
H 18.07554900 -2.44498700 23.39903000
H 17.45726300 -1.05942500 23.33070400
O -6.95041900 -8.20661200 -21.35644100
H -6.81662200 -8.52041000 -20.46190700
H -6.53259800 -7.34598200 -21.38211200
O -7.83861200 -20.61200000 -0.24033900
H -8.18023100 -20.81541300 -1.11124700
H -7.78785900 -19.65675900 -0.21108400
O -0.44483000 -22.20520600 8.17545800
H -0.86425500 -21.55495900 7.61170000
H 0.29080000 -22.53982700 7.66282200
O -12.56567700 -16.75353700 16.59220600
H -12.18835900 -16.99244900 17.43903300
H -13.46140300 -16.47962000 16.78857500
O -1.74567600 -16.19710400 -22.18778300
H -2.32657700 -15.92389600 -22.89804600
H -1.09352200 -15.50003500 -22.11917100
O 20.92062800 15.46008200 -14.94372900
H 20.58957500 16.26467800 -14.54424000
H 21.39619200 15.01340200 -14.24356300
O -8.15427500 1.62340300 5.41101300
H -8.41356100 1.76060600 6.32233600
H -8.70616800 0.90521700 5.10191800
O 29.60198200 -3.30819400 -2.31882800
H 29.10124800 -2.92957100 -3.04165000
H 29.59354400 -4.25167100 -2.47913200
O 18.65583900 -16.60175400 0.07702300
H 18.67667500 -16.09658400 0.88999900
H 18.36610400 -17.47628400 0.33619200
O -1.84794800 10.59804700 10.37581500
H -2.79567900 10.64446500 10.24847800
H -1.48571000 10.47790000 9.49816700
O -22.52559900 16.26454200 5.42791300
H -23.39496100 15.86392900 5.44462600
H -22.53725900 16.91117900 6.13335000
O -11.26771300 -26.25620600 9.12472700
H -12.00760800 -26.13565800 8.52925600
H -10.92748200 -25.37502000 9.27858000
O -10.48881000 -16.37269000 15.38805200
H -10.69415800 -15.72627100 16.06372800
H -10.55637700 -17.22022500 15.82740900
O -7.65600800 16.63918000 6.19524400
H -6.90125000 16.71203500 5.61078400
H -7.36630700 16.06429600 6.90341100
O 5.08071100 19.60598000 19.30296000
H 5.32191000 19.32039600 20.18433800
H 5.05758500 18.80444600 18.78053700
O -14.92292900 -22.03146500 4.12275700
H -15.29040100 -22.67765500 4.72605200
H -15.62035000 -21.85793600 3.49076900
O 5.40534800 -16.60423200 -10.22254900
H 5.35978000 -15.65014500 -10.15772000
H 5.26629600 -16.79640900 -11.14972200
O -3.68277400 -21.94909300 18.72859700
H -3.73663300 -22.45745900 19.53805700
H -3.75907200 -22.59396600 18.02557800
O 12.66935500 25.57086600 6.71467600
H 11.97534600 24.91224100 6.74825200
H 13.21362100 25.31936300 5.96872900
O 12.66976100 -8.07262400 -4.87114900
H 12.46644200 -7.92974500 -5.79570700
H 13.57551700 -8.38154200 -4.86159900
O 21.74776800 -12.27906300 7.67007500
H 20.99829400 -12.33228300 8.26338700
H 22.44443300 -12.76908400 8.10648700
O -0.16913100 23.66278900 14.92439800
H 0.19687600 23.08002700 15.58997300
H 0.43678200 23.60659900 14.18573100
O 7.92239800 -6.61388600 22.21651600
H 7.88716700 -7.52855700 22.49705000
H 8.85378200 -6.39410700 22.20480500
O 12.38517700 -6.90297500 19.12411000
H 12.24145200 -6.11097900 18.60579700
H 12.51585000 -6.59243500 20.01988200
O 10.47791200 -22.38427600 11.05345500
H 9.58494200 -22.21892100 10.75043000
H 11.02654500 -21.78727700 10.54501400
O 17.23167400 -20.69205300 3.54550500
H 17.88905800 -21.27717300 3.16862000
H 17.03756000 -20.05950200 2.85404600
O -9.35132300 7.45188800 14.11788000
H -9.01625700 7.89633100 13.33892900
H -9.24928200 6.51833500 13.93353500
O 25.32554000 6.79195700 -6.29941600
H 25.77782200 5.95564000 -6.18726400
H 26.01910100 7.45139000 -6.29330900
O -2.03676500 10.23894300 -0.17372000
H -2.41181400 9.46573900 0.24824700
H -2.60314500 10.96405600 0.08960800
O 4.90809400 7.28911200 -4.55722900
H 5.13637500 6.75184700 -3.79841700
H 5.14853900 8.18184300 -4.30997600
O -6.74336200 2.01325700 -8.69189300
H -5.92338300 1.54085800 -8.83693000
H -6.50796400 2.75126500 -8.12988800
O 5.04568600 17.61388900 -11.64014600
H 5.31919900 18.52338600 -11.76084600
H 4.62338900 17.37084900 -12.46386600
O 19.22928300 16.39762100 -4.80668500
H 19.21527500 15.55195400 -4.35811700
H 19.51188900 16.19981900 -5.69939200
O 8.15785400 -7.28681200 -24.76913100
H 8.55625500 -6.92347200 -25.56022100
H 8.13559900 -6.56007900 -24.14681300
O 17.28353400 -23.74379100 -6.12992600
H 16.63159200 -24.03320100 -6.76849800
H 17.82974600 -23.11495400 -6.60123600
O 3.75699500 -5.54069300 -14.15934000
H 4.39626500 -5.24501900 -13.51090200
H 2.91818600 -5.53963100 -13.69856100
O 14.14320600 -12.31971800 -6.22676200
H 14.71372200 -11.92619400 -6.88722500
H 13.75363500 -13.08039500 -6.65748400
O 2.21679400 -2.36526900 -8.75371400
H 2.82406800 -3.10460000 -8.71950100
H 2.54518000 -1.80742900 -9.45862100
O -10.00606100 19.53305200 12.07148400
H -10.08290500 20.38424700 12.50290600
H -10.45626200 18.91962400 12.65195100
O -8.88529400 3.94564100 -1.68125000
H -9.00824400 4.01678500 -2.62802600
H -7.95248300 3.76572400 -1.56545100
O 14.11010900 10.46455300 -16.93544800
H 13.46294000 9.75939600 -16.95755800
H 13.91645500 10.95348300 -16.13584700
O 10.13422500 -8.58255200 -3.85125500
H 9.55372600 -9.24400900 -4.22816000
H 10.37209600 -8.01512300 -4.58430300
O -3.65848700 24.70646400 0.09183000
H -4.11121200 24.60776500 0.92960100
H -2.72682800 24.67784300 0.30887500
O 8.11329200 18.32620200 -12.76912700
H 7.48279200 18.25281100 -12.05243700
H 8.89481400 18.71122700 -12.37302600
O -1.68425900 6.54759300 -0.87800400
H -0.77257900 6.26727800 -0.96061700
H -1.65623600 7.50233500 -0.93800200
O -7.20056200 11.54096700 -23.17424800
H -6.89889800 12.20690400 -22.55611600
H -7.75772500 10.95842900 -22.65836400
O -6.76323300 10.22536300 13.54846800
H -5.90846000 9.80329500 13.46023900
H -7.13598800 10.21652800 12.66705300
O -9.13540000 -14.04860700 -18.91165200
H -8.92413900 -14.05543600 -19.84539900
H -8.70618400 -13.26602600 -18.56631500
O -5.42429800 -2.15439000 -25.17920800
H -5.61951200 -1.59943500 -24.42390800
H -5.03992100 -2.94920300 -24.80982300
O 6.10303500 -21.06097900 20.08814100
H 5.90635100 -20.38477900 20.73670200
H 5.54107300 -20.85804700 19.34052200
O -4.85950200 1.68134100 -5.91725800
H -4.95350300 1.70554600 -6.86969700
H -4.26287600 0.95297500 -5.74568600
O -14.30402100 -3.37961900 23.73518900
H -14.31461600 -2.84733100 22.93950100
H -13.51989300 -3.10201100 24.20847000
O 13.18260900 18.49493600 -14.76014500
H 13.68751900 17.70719200 -14.96284600
H 12.72601700 18.29318700 -13.94360400
O -21.13289800 11.44005500 6.36883600
H -21.01753100 12.34384600 6.07487100
H -20.71392400 11.40382800 7.22852600
O 9.75959100 -15.41551800 -4.38743800
H 9.06743900 -14.75416900 -4.39774400
H 9.57052700 -15.98357100 -5.13408800
O 7.37702600 23.22157300 2.13657000
H 6.94827400 22.98522100 1.31384800
H 6.66145400 23.38741100 2.75006100
O -1.02507600 16.13535600 18.69694400
H -0.93068300 16.99753100 19.10229100
H -1.67851100 15.68169800 19.22904800
O -7.07019300 -5.70628800 25.79068600
H -6.15326100 -5.96731300 25.87823000
H -7.08636100 -4.77747100 26.02080400
O -12.32466500 13.36126400 -7.53442900
H -12.54352100 14.20436200 -7.93173100
H -12.09463300 12.79329900 -8.26956100
O 26.10964300 0.94564400 12.70568800
H 25.41705400 0.56654200 13.24713400
H 26.88179100 0.96744200 13.27069200
O 3.63753200 -18.50899700 -13.02902900
H 3.76393700 -17.78366400 -12.41708400
H 2.71943500 -18.76011000 -12.92923600
O -20.62986900 8.36268200 20.11313800
H -21.23450700 7.72168100 19.73884800
H -20.04182400 8.59704100 19.39536700
O -4.62861400 -18.07288600 -17.68226700
H -4.73683500 -17.53580400 -16.89716000
H -4.90186000 -18.95196500 -17.42059400
O -18.44219300 -19.72466400 -3.04219700
H -17.54128500 -20.04727400 -3.01307000
H -18.39278400 -18.82303800 -2.72510500
O -1.76614800 24.28998100 -12.37850600
H -1.94905500 23.80902200 -11.57117300
H -1.91969100 25.20889900 -12.15957200
O -16.84617900 20.94936500 -4.80660700
H -17.13863000 21.84229900 -4.62302100
H -17.57969900 20.53736100 -5.26280600
O 2.46345600 -3.99067000 -12.00853600
H 2.00466200 -3.74753300 -12.81287100
H 3.38631100 -3.80884800 -12.18516400
O 3.44209700 -22.91260400 -8.41681200
H 3.89257300 -22.33641100 -7.79904600
H 3.95559500 -22.86145900 -9.22280200
O -10.93990200 16.90018600 13.37303200
H -10.71656100 15.98103800 13.52084300
H -11.35488800 16.91868300 12.51084800
O -17.23314300 5.98740800 -18.88774800
H -17.02771500 6.07494800 -17.95678200
H -16.71722200 6.66761100 -19.32026100
O 11.78408300 16.35015100 2.31804800
H 11.86597900 15.46830100 1.95446200
H 12.03307100 16.26287600 3.23799600
O -12.05091600 4.68228200 13.39159300
H -12.54531400 4.16216200 14.02531800
H -11.38520700 5.13544400 13.90869300
O 10.51265300 18.38140600 7.82801300
H 10.47062400 19.13180900 7.23497800
H 10.47895200 18.75824600 8.70708800
O -12.08216300 12.97449300 24.08355900
H -12.48583000 13.53128100 23.41752400
H -11.29443700 12.62340200 23.66866100
O 22.38239500 -2.42078800 6.52819800
H 21.99202500 -1.94641700 7.26246300
H 22.43495500 -3.33045200 6.82088700
O -8.94323500 -28.00312500 -0.75400900
H -9.24344300 -27.54154400 0.02917700
H -8.48038000 -28.77359000 -0.42527500
O -1.27376900 7.71462000 15.54220300
H -0.33731300 7.52729200 15.47496000
H -1.44512800 7.78683200 16.48099900
O -1.56535700 -3.65948300 -3.72322300
H -1.59987100 -2.78960800 -3.32486700
H -2.03458500 -4.22954500 -3.11431300
O 8.11135900 -4.62724100 2.92617300
H 8.32992500 -4.48046500 2.00571300
H 8.79871500 -4.17883600 3.41850600
O 3.58496900 -19.37915500 10.03650800
H 4.46426500 -19.62267800 9.74651400
H 3.65724100 -18.46314100 10.30411200
O -2.74976700 -16.63165200 0.25373300
H -3.13088100 -17.41093300 -0.15128000
H -3.34760000 -16.40512900 0.96591300
O 4.10998700 -16.44906500 2.00298300
H 4.23795400 -15.50037200 2.01594900
H 4.81585500 -16.80162900 2.54461600
O 7.25570200 -4.82546700 24.19218700
H 8.04448700 -4.96426900 23.66767500
H 7.56988500 -4.72766400 25.09087500
O 25.23128500 14.95961000 4.87804600
H 25.40010200 15.43798300 4.06612100
H 25.91489200 14.29104800 4.91833000
O 7.60236800 -1.92049400 -27.57967200
H 7.49074100 -1.66825900 -28.49644800
H 8.09238200 -1.20065800 -27.18263400
O 22.69946800 15.54276200 11.96578400
H 22.96708600 14.75605500 12.44121500
H 22.97902200 15.39353300 11.06273500
O 17.18555200 -11.72555600 4.58973200
H 16.96093400 -10.83559800 4.31755000
H 17.10464700 -11.72077500 5.54333000
O 10.75885500 -1.63285200 20.34334700
H 11.37308400 -0.91753000 20.17721800
H 10.27436700 -1.36687400 21.12465700
O -20.55410300 -19.10908000 -3.01937600
H -20.49311300 -19.67409000 -2.24891700
H -20.50685800 -18.21680700 -2.67654500
O -12.76525200 -16.71120100 -15.31411000
H -12.29399600 -16.26135300 -16.01561900
H -12.99562600 -17.56555100 -15.67870700
O -5.36398600 10.41445100 27.35714400
H -5.66918000 9.64384100 27.83628800
H -4.49104500 10.59347600 27.70620300
O 3.13180800 25.32385800 5.56672700
H 3.13814300 24.55131700 6.13214900
H 2.69650400 26.00357800 6.08093400
O 22.53655000 10.58042200 1.09989000
H 21.80825800 10.55063800 1.72058800
H 23.28827700 10.23842900 1.58348400
O -13.34789100 17.42339700 -3.33649800
H -13.31928600 18.32267700 -3.66366700
H -12.90689000 16.90180300 -4.00685300
O 24.40430700 -12.62587900 -1.05787400
H 24.29672500 -13.51553700 -1.39476800
H 24.79714400 -12.13389700 -1.77867200
O 26.11061100 -2.95638500 -2.61999800
H 25.47461000 -2.66476200 -1.96652900
H 26.69362600 -3.55200600 -2.14963100
O 21.86628300 -16.01328900 -10.47821700
H 22.24298000 -16.39949800 -11.26910500
H 21.11819300 -15.50115000 -10.78479900
O -0.14295200 -8.33714200 27.01449500
H -0.09265400 -9.17679700 26.55731700
H 0.12432800 -8.52815100 27.91338000
O 13.52122100 21.73227700 -7.15843900
H 13.13854300 22.53933300 -6.81379300
H 13.11779900 21.02964400 -6.64905200
O -8.13517700 -12.01278300 4.43222000
H -8.73596100 -12.36814700 3.77698100
H -7.94703800 -11.12164200 4.13830300
O 2.45519500 -6.30235600 -25.03960500
H 2.42510900 -6.83947300 -24.24767000
H 1.77751200 -6.66430900 -25.61026500
O 20.58120800 -4.58908100 -11.36214500
H 20.75772300 -4.77183300 -10.43910300
H 19.71630700 -4.17950100 -11.37255100
O -13.54998900 6.11465900 14.12561200
H -14.00997100 5.67980500 13.40736400
H -14.23908600 6.52019200 14.65154400
O 4.03284600 -18.89487100 0.40779200
H 3.82944400 -19.61463700 1.00539300
H 4.58485700 -18.30012300 0.91521100
O 22.33496000 -4.81639600 -19.44168300
H 22.45796400 -3.88503100 -19.25731600
H 21.59253200 -4.85362300 -20.04445400
O 9.78682300 -16.72896400 18.77870800
H 9.98733200 -17.48636500 18.22852500
H 9.24955100 -16.15880800 18.22900000
O 2.01909700 6.31086000 -6.31931300
H 1.97322700 6.39284700 -7.27206500
H 1.29319700 6.84046000 -5.98990700
O 16.86179500 -8.86529300 -10.42182400
H 17.47089300 -8.96158400 -9.68950700
H 16.99469600 -9.64622700 -10.95884900
O 21.45138500 0.56383700 16.49027500
H 20.59093400 0.92675100 16.70117300
H 21.89510200 0.47256800 17.33330600
O 20.09764100 -10.87734000 -19.12176900
H 20.75889000 -11.22465400 -18.52286600
H 19.55527400 -10.30039000 -18.58429100
O 9.77163600 18.61924700 -18.18288800
H 10.46528300 17.99703800 -18.40259900
H 9.02826900 18.36454100 -18.72919100
O 27.90430700 3.30098600 8.80929700
H 27.10117200 3.31330700 8.28835200
H 28.61317100 3.39993900 8.17397300
O -2.50771700 -4.69290300 -28.89226700
H -2.76615000 -4.09136700 -29.59078600
H -2.57434200 -5.56551200 -29.27960500
O -12.85001200 20.56694500 -1.09674300
H -12.65406800 21.03086700 -1.91095600
H -12.80863200 21.23642200 -0.41409800
O -0.78312000 17.94674300 4.54431900
H -0.79213900 18.36739100 5.40428100
H -0.19880600 18.48549600 4.01117800
O 16.40499400 11.94765500 -18.15342900
H 17.05268700 12.55683100 -17.79852100
H 15.79254400 11.79096100 -17.43491000
O -15.68817200 18.99988200 -10.16931900
H -16.19520900 18.30110500 -9.75557200
H -16.20595100 19.79368800 -10.03630300
O -8.78085800 19.20544700 -3.40520900
H -9.34429000 18.82345700 -2.73201600
H -7.95109100 19.38258100 -2.96245900
O 28.51434400 5.90871600 -4.97529800
H 28.72813300 6.74499700 -4.56118500
H 28.05097600 5.41038700 -4.30233800
O 4.71689000 16.31374800 8.20945300
H 5.07060900 15.72506700 8.87646100
H 4.13070300 16.90253900 8.68445500
O -10.63317000 -27.95710300 2.31118500
H -9.73517900 -28.28594500 2.26605000
H -10.92409100 -27.90550900 1.40089900
O -7.51062500 18.44466600 1.19061700
H -7.68624600 18.68047200 2.10172300
H -7.08312500 17.58952200 1.23408200
O -22.83589000 -3.07385700 -12.04602900
H -23.64152900 -2.86057600 -12.51721900
H -23.05867800 -2.98118500 -11.11991100
O -8.32272800 -10.74790700 23.67372100
H -9.07491200 -10.85677700 24.25589700
H -8.43212500 -11.41843800 22.99967500
O -26.38849900 -5.81906400 1.19933200
H -26.03954600 -5.41590200 1.99447700
H -26.98086600 -6.50422700 1.50847700
O -21.01701200 7.84945000 9.16140100
H -20.09971000 7.82002100 8.88890700
H -21.09717400 7.17404900 9.83469400
O -4.06675200 -18.50117800 19.51284400
H -3.85856000 -19.37730600 19.83783400
H -4.58465400 -18.09572000 20.20804000
O 16.98358300 18.32047800 -2.86491900
H 17.90672300 18.43770800 -3.08993600
H 16.50843100 18.47129000 -3.68186700
O 4.13250100 -7.61707600 22.87260200
H 4.26060400 -7.16940600 22.03609500
H 3.20707400 -7.49134900 23.08163700
O 14.29988600 -6.77669800 -6.18005700
H 14.78615900 -7.22888500 -6.86971400
H 14.95642600 -6.55089100 -5.52135900
O -3.02348300 -9.27891500 -20.64166000
H -3.72036600 -9.91443600 -20.80606700
H -3.44085100 -8.42312400 -20.73831800
O 27.49631500 8.90398000 7.99684600
H 27.66761200 8.49580500 7.14795700
H 26.56264700 9.11393500 7.98682400
O 2.45158900 -2.43895700 -25.26544000
H 2.33275700 -2.34183700 -26.21043100
H 3.15376700 -1.82896300 -25.04011900
O -4.33644600 -14.88727100 -9.20337400
H -3.72872200 -14.33949200 -8.70621000
H -3.78565100 -15.54188900 -9.63234800
O -8.73378600 19.70562300 -5.80402200
H -8.78043100 18.83272600 -6.19445600
H -9.57322300 19.82341200 -5.35973900
O 6.47673700 -15.28915400 3.91148700
H 5.57495000 -15.50430300 4.15034500
H 6.51586100 -15.40481100 2.96227100
O 7.74834600 -11.48891100 -4.46853300
H 8.28773800 -11.00180000 -3.84536200
H 6.98241600 -11.76858100 -3.96748100
O -1.78003900 -14.40785300 -26.17127400
H -1.39616900 -13.68122500 -26.66241400
H -1.95405000 -14.05309400 -25.29961800
O -9.64869100 -17.64551700 -3.94491800
H -9.19095000 -17.96397200 -4.72313500
H -9.68801500 -16.69532400 -4.05217400
O 7.59472100 18.60863900 -16.60827200
H 7.32534400 18.94485000 -17.46323400
H 6.91351500 17.98303900 -16.36230500
O -8.89909600 20.33279900 9.33716200
H -9.19973200 20.44425900 10.23924600
H -7.95827900 20.50577900 9.36647000
O 4.78231400 -5.45563000 -23.34334600
H 4.46340600 -5.98661100 -22.61333300
H 4.17741300 -4.71575200 -23.39426500
O 28.88506000 -7.13514300 1.62088800
H 28.87604500 -7.80029800 2.30940000
H 28.02705900 -7.20061300 1.20200300
O -12.57149900 25.39337600 5.92112200
H -12.18111600 24.60460000 6.29794500
H -12.75922800 25.95887300 6.67004700
O -0.15794900 8.46208200 3.92651500
H -0.92040300 8.38130400 4.49984100
H 0.59693500 8.31496400 4.49609600
O -9.88770400 16.56368800 22.21129900
H -10.50233000 16.29548900 22.89457500
H -9.50447100 17.38079300 22.52971500
O -3.74807400 6.24460400 -2.73535500
H -3.98676800 6.40592000 -3.64835300
H -4.58091000 6.19742200 -2.26623400
O -8.40349700 -28.05808000 -3.59456100
H -8.39685300 -28.65992900 -2.85005100
H -7.66029900 -28.32482200 -4.13532100
O -24.48683900 8.70178100 -7.38225500
H -23.71567000 9.10404300 -7.78231300
H -24.75315500 9.30910600 -6.69222000
O 14.46234600 -18.32265700 12.71659600
H 14.72145800 -17.40552000 12.80759800
H 13.70898200 -18.30981400 12.12651600
O 21.31436700 11.37376300 15.50980700
H 22.02695200 11.99967300 15.37934100
H 21.51174000 10.64708700 14.91912800
O 15.85021600 -15.38607000 -5.61103600
H 16.17444200 -15.63366300 -6.47714100
H 15.32611300 -14.59898700 -5.75845300
O 7.83758700 -9.04763600 -11.51444600
H 7.37547000 -9.27935600 -12.32024800
H 8.66904600 -8.67303200 -11.80472800
O -23.06651400 3.58447100 5.87108400
H -22.78929300 3.67724500 6.78273300
H -23.53550200 4.39441000 5.67116900
O -5.71516600 17.79117300 -2.70591200
H -6.43676000 17.31507500 -3.11724400
H -5.64260700 17.41979000 -1.82686300
O 14.46160900 -14.69839800 13.37096900
H 14.00704700 -14.18249000 12.70480500
H 15.08520600 -15.23705300 12.88425000
O 21.75702100 12.38128100 8.21900400
H 22.51760800 11.80245200 8.27402600
H 21.39183200 12.22826100 7.34771900
O -1.44291800 24.24409900 13.23109900
H -2.10360200 23.58403800 13.02043800
H -1.50112400 24.88708000 12.52462600
O 1.63094600 19.07288600 5.07706500
H 1.20113400 19.13276400 5.93043300
H 1.76768000 18.13657200 4.93376100
O 6.15460000 16.75145800 20.74634100
H 6.67720800 16.50956600 21.51114800
H 5.59427800 15.99374500 20.57952500
O -20.33562200 6.12388100 11.88111500
H -20.22179000 5.20739500 12.13342200
H -19.65057600 6.28945200 11.23364700
O -1.10675300 17.39605200 7.54851300
H -0.57335100 18.09445800 7.92834500
H -0.79630100 16.59258200 7.96561200
O 16.58205000 2.55683700 -16.22168100
H 16.79848600 3.21810500 -16.87928400
H 17.42473800 2.19650600 -15.94607900
O -6.04777000 -10.72039900 -14.09159100
H -5.60528200 -11.21847600 -14.77911200
H -6.77450800 -10.28094700 -14.53278200
O -12.57965700 19.47880900 12.75458500
H -12.52814600 18.74266500 13.36450300
H -12.15775600 20.20743200 13.20958700
O -19.41690300 13.52390900 -13.32003400
H -18.50331800 13.80682200 -13.27662300
H -19.79889400 13.79102800 -12.48418200
O 9.99077000 -15.72183900 3.59718400
H 9.09271800 -16.04063200 3.50533900
H 10.15353300 -15.70820500 4.54017900
O -0.03095100 10.19525500 11.54658900
H 0.86288300 9.85483200 11.58822400
H -0.13216300 10.72293000 12.33856900
O 10.63131900 -5.48993700 25.99782100
H 11.30387300 -5.49165500 26.67916500
H 10.26847800 -6.37548800 26.00572300
O -11.17037600 -7.80664300 20.46852500
H -11.36275300 -8.49591700 19.83255700
H -11.21837600 -6.99037500 19.97121400
O 12.32790900 -4.30180100 -23.13059000
H 12.01033900 -5.14416900 -22.80481800
H 11.55013600 -3.74637300 -23.18046200
O 0.78315800 20.85026600 20.86283100
H 1.55379000 20.94629100 21.42271400
H 0.09632700 20.51946100 21.44140600
O -6.49982300 27.75109200 -0.02846900
H -6.88596100 28.36528400 -0.65315100
H -6.53188700 26.90030300 -0.46555700
O 9.17754400 3.37375100 -28.32141900
H 9.14279600 2.88563700 -27.49855900
H 9.62064800 4.19380600 -28.10442900
O -3.66946400 -19.01499100 22.78486800
H -3.39065700 -18.54050600 22.00148200
H -4.62561900 -18.97653800 22.77055400
O 7.57570600 6.27761800 1.22902700
H 8.27082000 5.62063700 1.18713900
H 6.87459700 5.93195100 0.67687000
O -24.04282300 -13.17776200 -6.63666500
H -24.91731900 -13.47070400 -6.89357600
H -23.91282000 -13.52883200 -5.75588900
O 1.88727000 -19.10782700 -1.93372600
H 1.39325100 -18.89474600 -1.14182700
H 1.69313200 -20.02891400 -2.10643300
O 3.78568500 25.19187400 -10.05846300
H 3.58598900 25.92700500 -9.47858000
H 4.28951600 25.57318000 -10.77726600
O -16.25873400 17.20084800 4.49620300
H -15.52266200 17.16141800 3.88529800
H -16.89566300 16.57193300 4.15752000
O 25.11152400 -3.35204500 6.72970900
H 25.94217500 -2.99491100 7.04440800
H 24.53050700 -3.33458100 7.48999200
O 22.48258100 11.72300200 -5.87639100
H 23.43468100 11.62425400 -5.89418400
H 22.14488900 10.84075300 -5.72303400
O 15.49621400 18.22891400 12.38595000
H 16.23920500 18.59662500 12.86481900
H 15.59060100 17.28049400 12.47259200
O -9.44559100 -1.41035200 4.29161300
H -8.70472100 -0.94148100 3.90712100
H -10.22262800 -0.99099300 3.92246700
O -19.41293200 14.58628100 17.40619400
H -19.54083100 15.34087400 16.83104800
H -20.03448600 13.92885000 17.09414900
O -13.61348500 -12.37740600 20.62747500
H -12.95076200 -12.81446100 20.09236500
H -13.76573800 -12.96835700 21.36470800
O 13.41917800 15.79018900 -7.13340900
H 13.70990400 14.99465200 -6.68713300
H 12.68607000 16.11383800 -6.61022700
O 22.28686700 16.62024600 -4.07341700
H 21.36871400 16.61752700 -4.34462000
H 22.59222600 17.51149200 -4.24179900
O 25.35062400 9.15605300 11.79430200
H 24.69191100 9.06351100 11.10575600
H 26.18331000 8.95044500 11.36971400
O 26.15579300 -6.72465400 2.36442900
H 26.73828400 -7.16361300 2.98457600
H 25.29712200 -6.72685000 2.78703600
O -9.00265000 -19.89760600 19.21075700
H -9.42434000 -20.66300400 19.60178800
H -8.68464500 -19.38383400 19.95293400
O -4.12508700 -1.23393500 -4.56526200
H -3.86631800 -1.92204100 -3.95198300
H -4.15396900 -0.43343000 -4.04155100
O -2.23067400 -3.56326800 29.70409100
H -2.46879200 -4.43368500 29.38434800
H -2.80336600 -2.96021100 29.23052700
O 21.52108900 -7.75515700 -15.45119400
H 21.89744700 -7.47830600 -16.28681900
H 22.24296500 -7.70301100 -14.82502100
O 9.22585500 -0.53738200 1.51152200
H 8.69912900 -0.64419500 0.71923900
H 9.73544400 -1.34449400 1.58084300
O -10.98790900 10.99139900 11.71568400
H -11.71480200 11.17378200 11.11992700
H -10.54955500 11.83349600 11.83666100
O -12.63965600 -21.32817200 7.97772700
H -11.92993100 -21.89446000 7.67413200
H -12.23819600 -20.46676400 8.09052700
O 14.45374600 19.93497100 7.52772300
H 15.01638800 19.43104500 8.11598800
H 14.92069600 19.95188000 6.69250500
O -27.14750800 6.57589900 -3.62800500
H -27.22778300 6.21934700 -2.74313900
H -27.02075100 7.51655400 -3.50545200
O -9.40716900 1.41438400 -23.15455700
H -8.87377900 2.19175400 -23.32114500
H -9.79394500 1.19322500 -24.00155800
O 23.21412300 -18.58288800 -3.11842100
H 22.90357000 -19.21797600 -2.47283500
H 23.83260600 -18.02856500 -2.64289900
O 0.08046200 -23.68800600 -2.26788000
H 0.25887100 -22.75386800 -2.37796100
H 0.23093800 -24.07234100 -3.13133900
O -3.74288800 17.68481600 -9.77758300
H -2.91713800 17.40855600 -10.17555200
H -4.38096100 17.02449200 -10.04731000
O -22.78589500 -9.61230900 -6.84664600
H -22.11735600 -9.90689900 -7.46538300
H -23.57463200 -9.48880300 -7.37443100
O 0.74738000 -16.64625000 -14.88842400
H 1.33146800 -17.31587400 -14.53204600
H 0.10317800 -17.12933300 -15.40567900
O 0.14032500 8.10358000 27.27692900
H 0.63174300 8.85739400 27.60378400
H -0.57856800 7.98833300 27.89807900
O -8.47441200 -15.08083000 15.83546600
H -8.41966600 -16.01395400 16.04245500
H -8.79410900 -15.04541100 14.93410200
O -13.80132000 14.28189600 16.33436100
H -13.96869400 15.22354500 16.29141700
H -12.84956200 14.19681900 16.28110500
O -1.39916700 -16.73406300 -13.26392500
H -0.66842900 -17.34558000 -13.35683400
H -1.42299600 -16.24944100 -14.08884400
O -3.68164600 -0.00065900 5.81649500
H -3.15442600 0.26283400 5.06205900
H -3.91106700 -0.91495800 5.65115000
O 14.58222800 -20.96573600 13.98704300
H 15.27058800 -21.06156800 13.32860700
H 14.49018300 -20.02157200 14.11353100
O 2.85899800 -16.72922700 13.60224700
H 2.60177000 -15.86151000 13.29005700
H 3.52631300 -16.56503900 14.26831800
O -0.70369000 17.68793700 16.27509600
H -0.02934600 17.21224700 15.78976800
H -1.23498500 18.11719400 15.60473700
O -24.29841500 10.35878500 3.46231300
H -24.05852300 10.26915800 4.38479900
H -25.23966200 10.18808700 3.43344900
O -23.70532200 -4.72613300 11.51448100
H -22.94473400 -4.18239700 11.30852300
H -24.38334200 -4.10945000 11.78999300
O -22.72467400 -18.88991800 -3.30013500
H -22.49598500 -19.42864700 -4.05778500
H -22.67091400 -19.48185000 -2.55003900
O -10.81124500 -13.84282700 -17.14343400
H -11.14116800 -14.08557100 -18.00875900
H -11.34300500 -14.34461800 -16.52589500
O 11.58869100 -23.44387500 7.23343000
H 11.55819200 -22.55274800 6.88482500
H 11.86505500 -23.98870000 6.49674500
O -16.58004500 9.42880100 -5.92694000
H -15.92498700 10.08702300 -5.69411800
H -17.35640200 9.92955500 -6.17680400
O -11.85953300 13.35996400 10.95611800
H -12.54852600 13.54675400 10.31818400
H -11.03945100 13.49278600 10.48099700
O -24.20133700 1.56277900 16.71569700
H -23.81578800 1.54663100 15.83953800
H -24.91613100 0.92720800 16.68351100
O 12.00235700 -11.20528800 21.66804700
H 12.47309700 -11.86045700 21.15256800
H 11.21254800 -11.01332100 21.16280700
O 4.06581900 4.62638800 24.30486800
H 3.37787600 4.24983400 23.75577500
H 4.71824800 3.93208900 24.39543900
O -0.02865500 -6.18300000 -2.38246900
H -0.17139000 -5.45522600 -2.98788900
H 0.26922700 -5.77444200 -1.56990200
O -1.44282900 15.66894900 22.22499300
H -2.00822500 15.56960500 21.45882100
H -0.56133300 15.78074800 21.86949000
O -25.12934600 -9.79211700 3.07060400
H -24.52912400 -10.47433800 2.76915900
H -25.82585600 -9.76752400 2.41471800
O -12.00163600 -12.38106200 -6.76402200
H -12.30919800 -12.60742600 -5.88611100
H -11.12755600 -12.01391600 -6.63323800
O -6.87501500 -2.14127000 25.58322000
H -6.84700300 -1.39650400 26.18413700
H -6.44845500 -1.83129100 24.78454800
O 5.51065500 -10.07117800 -17.92588100
H 6.24388800 -9.45592600 -17.90598900
H 5.91437700 -10.93853400 -17.90099400
O -6.09086900 11.90680000 17.25012100
H -6.42010200 11.95600400 18.14775600
H -6.80853200 11.52697800 16.74355200
O -28.98466800 -0.74335200 -6.78042800
H -29.33461700 -1.36564700 -6.14258200
H -28.25798900 -0.31125300 -6.33193800
O 16.29177900 24.19054200 -2.87146400
H 15.64886600 23.59820200 -2.48113400
H 16.73132600 24.60346600 -2.12835600
O -11.30787000 8.17879200 0.18328900
H -10.97215000 7.45711400 0.71530000
H -10.95296700 8.02689500 -0.69243200
O -0.03436700 -14.73562000 -11.04849800
H 0.14926000 -13.86625900 -11.40494600
H 0.38030600 -14.74232700 -10.18599100
O 15.83172700 -12.09840600 -0.75984700
H 16.08323100 -12.82924300 -0.19488400
H 16.42768700 -11.38734200 -0.52503400
O 13.29143300 9.25747900 -19.67525800
H 13.82401500 9.83341800 -19.12643000
H 12.67006200 8.84733300 -19.07393000
O 3.40386000 -9.65992900 0.88039800
H 2.79115200 -10.07004600 1.49109900
H 4.06516400 -9.24519800 1.43410600
O -6.97239800 -22.35345300 0.78748700
H -6.51091200 -22.50092500 -0.03825200
H -6.32637200 -21.94369800 1.36252400
O 14.69061300 9.67694100 -23.15180000
H 15.36845400 9.57036200 -23.81943300
H 14.27122600 10.51264500 -23.35583600
O -16.05521300 -25.21189700 -0.10909800
H -16.78191200 -24.85919800 -0.62297900
H -15.50509700 -25.67300800 -0.74208000
O 12.62386700 8.99164900 -21.90098100
H 12.73987700 8.04895200 -22.02109600
H 12.49343500 9.33951500 -22.78296400
O -6.58306100 13.49434500 -6.95871500
H -7.19596000 12.98065800 -6.43236700
H -6.77510700 13.25598300 -7.86547800
O -12.87806400 19.12461200 16.32627600
H -12.24508500 19.45973000 15.69098400
H -13.38723000 18.47090700 15.84738600
O 12.49281200 -2.14717900 21.61739600
H 13.14418600 -1.91812900 22.28057800
H 11.80627200 -2.61256100 22.09488800
O 1.30428600 -24.40850100 14.88028900
H 0.82578600 -24.79326800 15.61483300
H 2.08720300 -24.02052000 15.27071200
O -6.20903000 -14.01068800 -20.49926300
H -6.26254500 -14.49526300 -21.32320800
H -6.20778300 -13.08820100 -20.75408100
O -2.88108000 2.54927000 6.77438300
H -3.38382300 2.22689200 6.02612900
H -2.58993900 3.42434600 6.51865600
O 9.92860100 20.29885100 19.70413000
H 10.77716400 19.85683300 19.73763200
H 9.40817100 19.88854900 20.39458000
O 26.66968400 -4.96380900 0.64995500
H 26.71652200 -4.68737700 -0.26544300
H 25.85977700 -4.57852200 0.98390400
O -19.78049600 -17.30343300 -10.32088900
H -19.19758500 -17.71630100 -9.68346000
H -19.19975700 -16.83734300 -10.92207100
O 10.13443600 -5.73917100 23.86934000
H 10.22965600 -4.89825500 23.42173000
H 10.91991600 -6.23394700 23.63666700
O -3.51003800 15.35116600 10.75643000
H -3.83201200 16.22218200 10.98929400
H -3.74697400 15.23736500 9.83619800
O 2.34183000 -27.65407400 -0.00837200
H 2.28090300 -27.40208600 -0.92997500
H 1.52427900 -28.11589000 0.17670200
O -0.52199900 10.08805700 25.62053200
H -1.11347700 10.46056800 24.96635200
H -0.54133200 9.14426400 25.46306200
O 20.65352300 -14.41087200 10.94649200
H 20.81884900 -13.82285600 10.20929000
H 20.82613900 -15.28872700 10.60665200
O 12.33656800 -21.24871100 13.21488600
H 12.27983100 -21.65067500 12.34784000
H 12.59065400 -20.34072700 13.05080200
O -0.92328600 -22.57263600 0.03105600
H -1.48003200 -23.11082100 -0.53192900
H -0.02821600 -22.83898700 -0.17828400
O -16.29518800 5.18352800 19.61761500
H -16.58616200 5.84102900 20.24974600
H -16.27411200 4.36148700 20.10722900
O 23.28674700 0.28309300 -11.13041100
H 23.37173200 1.06635200 -10.58649400
H 22.96026600 -0.39487200 -10.53906500
O 2.69637400 15.02268400 -19.23352300
H 2.44847100 14.43986600 -18.51558800
H 3.47086300 15.48828500 -18.91840500
O 20.61674600 -13.13736900 -7.69949600
H 20.72693000 -12.20901000 -7.49317100
H 20.38020300 -13.54936200 -6.86869800
O -11.87486600 24.75409900 -2.40326100
H -12.47319100 24.90682900 -3.13486400
H -11.38371600 23.96899600 -2.64471900
O 0.40480700 8.29102000 -2.76999600
H 0.75943500 9.16194800 -2.94967700
H 0.68579100 7.75185800 -3.50909600
O 6.29740200 -22.44858300 6.65313300
H 6.43069900 -21.63851900 6.16059900
H 6.24648900 -23.13636900 5.98960000
O 14.90645300 16.03424300 -4.41853400
H 15.59673600 16.35457600 -3.83762300
H 14.92158600 15.08242900 -4.31985100
O -9.14209800 -25.56942400 -12.75477500
H -8.57078700 -25.92026600 -12.07134600
H -9.78791000 -25.03829500 -12.28921500
O -25.13578900 -2.59075700 -3.05545400
H -25.75553500 -3.32041800 -3.06388100
H -25.16422100 -2.23138800 -3.94199900
O -22.77561800 -7.40615700 -8.62476100
H -23.72939500 -7.48837100 -8.61417500
H -22.50016700 -7.60217600 -7.72942800
O -22.11003500 -1.25994400 -6.48613000
H -22.42995500 -2.10700500 -6.79709900
H -22.33034300 -0.64124200 -7.18225400
O -6.29063400 17.32224700 23.67240800
H -6.75530700 17.80840300 22.99101800
H -5.78477300 16.65947400 23.20256500
O -0.62299700 12.62109200 10.72338900
H -0.22950000 12.78613000 11.58041000
H -0.03187600 12.00266700 10.29438500
O -11.01557400 16.90864000 -13.65249700
H -11.48018200 17.69921000 -13.92763500
H -11.65759100 16.40566600 -13.15175000
O 29.16282600 -1.23552900 2.87059100
H 28.31130400 -0.94721700 2.54142800
H 29.04532700 -1.32552400 3.81611300
O 0.82102600 11.26639000 -0.33135300
H 0.00019400 10.96609100 -0.72201500
H 0.72913500 12.21644600 -0.26159800
O 1.31796100 -28.35034900 -9.15473600
H 1.73965500 -28.74933700 -8.39345800
H 0.39446300 -28.59022900 -9.08038800
O 3.71837700 -4.24811500 0.41390300
H 3.87782400 -4.26649200 -0.52991900
H 3.40277100 -5.12565800 0.62891100
O 21.11695500 -7.63170300 -8.74288000
H 20.56407000 -7.98887300 -9.43808400
H 21.70836900 -7.02283500 -9.18494900
O 28.16431600 1.26939700 7.85912900
H 27.37808900 1.13316100 8.38813700
H 28.83182500 0.71262400 8.25956900
O 0.68432900 -16.32306600 -8.56176100
H 0.11980100 -15.64167600 -8.19627900
H 1.37353600 -16.44968800 -7.90993500
O -5.77979100 19.24028800 -18.13043600
H -4.82242300 19.24205100 -18.12825500
H -6.02697100 19.83852900 -18.83536600
O -15.69704300 18.38428300 6.82109300
H -14.77935700 18.55392100 7.03472500
H -16.17730400 18.56802100 7.62825300
O 20.97979500 -17.09890600 -8.78260700
H 20.29475200 -17.68387500 -8.45843100
H 21.75640300 -17.65134600 -8.86982700
O -20.79411500 -21.48219900 2.15040100
H -20.32671200 -21.87433800 2.88818400
H -21.40694300 -20.86289400 2.54640700
O -2.01820500 -21.57659900 -20.01721700
H -2.70235000 -20.95134400 -19.77729100
H -2.37050400 -22.43343900 -19.77716100
O -9.05703800 19.49068300 7.14544600
H -9.79231600 19.27116300 6.57296000
H -8.89567000 20.42198800 6.99528500
O 26.83510400 -3.44897300 -10.92706300
H 27.17898500 -2.57846600 -10.72575500
H 26.13278700 -3.59066200 -10.29256100
O 26.07323600 -10.31979400 -0.36648500
H 26.56802400 -10.31942200 -1.18608600
H 25.96676000 -11.24398400 -0.14186700
O -11.07147500 20.86893100 -6.62082900
H -10.36132100 21.50553800 -6.70434500
H -10.80072400 20.12404500 -7.15725700
O -25.22029700 13.12798700 4.29647100
H -24.31919800 13.43291200 4.18874400
H -25.15347300 12.17542600 4.36033800
O -7.14786800 14.36559200 -21.15992100
H -6.90799900 14.64379300 -22.04401900
H -6.53554100 13.66153900 -20.94712200
O -27.15199000 12.74671200 0.58691900
H -27.02616700 13.00632400 -0.32595200
H -26.67124900 11.92432800 0.67906000
O 7.20069900 22.98807100 -12.63298700
H 6.39725700 22.68945200 -12.20652700
H 7.86951700 22.35516900 -12.37215300
O -17.75760700 3.49261200 8.23565700
H -18.55027900 3.36797200 8.75786200
H -18.07065000 3.73216900 7.36357200
O 10.50979100 -19.92475100 5.98558100
H 10.86360100 -19.92396300 5.09598500
H 10.82997200 -19.11377600 6.38019500
O -0.89697700 -22.07464200 -6.68762900
H 0.00333400 -22.10480300 -7.01180700
H -1.40507100 -21.69222100 -7.40283000
O -4.33505400 -1.45514200 -6.74373700
H -4.07587300 -0.66651800 -7.22066500
H -4.63464000 -2.06497200 -7.41773500
O 4.49129600 -2.18039000 -0.84390000
H 5.21792800 -1.71119200 -1.25429300
H 4.42599600 -1.81359100 0.03763900
O -16.49318300 16.40856200 -14.58035300
H -15.62809400 16.38423400 -14.98973300
H -17.05831700 16.83999300 -15.22098500
O -8.28910000 -25.34993300 1.81523900
H -8.28976600 -25.45822500 2.76646700
H -9.07058100 -25.81223300 1.51277900
O -25.74935000 4.05237700 6.76972500
H -26.55324300 4.52103000 6.54459700
H -25.53566400 3.53883500 5.99092400
O -13.31661600 9.99610100 -6.95371300
H -12.45521300 9.59014200 -6.85499500
H -13.25047600 10.52770200 -7.74677300
O 16.94707400 -4.83456000 -12.52335200
H 17.04991400 -4.72548600 -11.57779000
H 17.59987000 -4.25272100 -12.91224500
O -4.30972400 -2.59922100 4.10082000
H -4.07745500 -3.09505500 3.31547800
H -4.77984200 -3.22087400 4.65620600
O -4.16662600 23.51804500 -7.62989500
H -3.59530400 23.62050000 -6.86854400
H -4.77219400 24.25785500 -7.58648300
O 1.97948500 -3.67339200 28.95406100
H 2.27661400 -4.10046400 28.15039100
H 1.89920000 -2.74710600 28.72720100
O 24.08003600 -12.52843100 6.22535100
H 23.86065400 -12.74386300 5.31869600
H 23.51147500 -11.79193300 6.44946200
O -12.99088300 -18.64247800 11.95035800
H -12.41438200 -18.92273500 12.66145900
H -12.76701600 -17.72469900 11.79711600
O -10.70821800 -13.94657800 -10.88190300
H -10.46763200 -14.15246100 -11.78539200
H -10.90512100 -14.79213900 -10.47919700
O 2.78359600 -14.50794000 -4.95468900
H 2.77148200 -15.41575300 -5.25848400
H 3.66613500 -14.19326200 -5.14967300
O 19.12578900 20.66017300 5.92767200
H 19.37844500 21.02090800 5.07761500
H 18.45346900 20.00833000 5.73017600
O -21.13411600 19.01643600 -6.62608700
H -20.72517500 19.76206400 -7.06582400
H -22.05536900 19.25846900 -6.53318400
O 6.20859700 28.59801600 6.60341100
H 5.51144700 28.87316400 6.00772900
H 5.77176900 28.06220100 7.26522700
O 9.13943200 11.90097400 22.30851300
H 9.28754000 11.87107900 21.36313900
H 9.16365600 12.83081600 22.53373100
O 18.55314200 16.28656000 15.39749700
H 18.33215300 15.59076400 14.77814800
H 18.54733300 17.09085900 14.87885800
O -15.14428100 -20.38078600 -3.67079100
H -15.47631300 -19.49370000 -3.53152800
H -14.22034100 -20.34093500 -3.42449300
O 6.14694700 8.99343800 19.89329000
H 6.53655100 9.70793500 20.39753700
H 6.88569500 8.56021500 19.46610500
O 18.45699900 16.46624000 -9.10305300
H 18.32010700 15.76679800 -9.74227400
H 18.24400400 17.27389300 -9.57022200
O 16.19196300 -22.89898900 -8.59998300
H 17.13452300 -23.04232000 -8.68715500
H 16.06458400 -21.96894700 -8.78630000
O -16.55689100 17.10458600 -17.79226000
H -17.40945300 17.18701600 -17.36458500
H -15.99043200 16.69506100 -17.13855400
O -2.37967700 2.18658500 -6.92416500
H -2.05952000 1.56201300 -6.27303400
H -2.17181300 3.04847500 -6.56381000
O -12.23023400 18.48965700 -5.56497800
H -12.10398100 18.47405700 -6.51386100
H -11.76632800 19.27160800 -5.26621000
O -0.62684400 15.63689200 -10.29930700
H -1.36468500 15.17688400 -9.89862600
H -1.00120800 16.44227400 -10.65585900
O -12.86047000 -13.77260300 -11.30161800
H -13.06713500 -14.70529000 -11.23880000
H -12.56669800 -13.64419200 -12.20335300
O -5.35201400 9.02459600 10.62240800
H -5.83950600 8.93186500 11.44113500
H -4.54580300 9.47998600 10.86440000
O 25.31998300 4.36417400 -8.65419100
H 26.10956800 4.57071700 -8.15373400
H 24.59385400 4.55042800 -8.05924300
O 9.08242300 -6.71387100 0.15816400
H 8.45097600 -7.09816800 -0.45023800
H 9.44872800 -5.96205800 -0.30714800
O 6.32214000 -20.09741900 8.01608700
H 6.00006100 -19.21546500 7.82904500
H 7.17266100 -19.96684300 8.43499100
O 11.27012100 -20.49717200 -9.52886500
H 10.65883300 -20.11924600 -10.16136800
H 11.14159600 -19.99064600 -8.72709900
O 10.45098000 -23.47105700 9.14109700
H 10.08581200 -22.72269900 8.66868300
H 10.12878600 -24.24087800 8.67260700
O 25.31937100 7.79188700 6.65690500
H 24.53119700 8.32361400 6.76919900
H 25.13256700 7.22741100 5.90698000
O -1.24776700 14.91425300 2.15049000
H -0.60019200 14.29394100 2.48578400
H -2.09614600 14.52833900 2.36784100
O -4.96633100 24.33267700 16.30564300
H -5.76902900 24.17577500 16.80325700
H -4.27149100 24.37258800 16.96254600
O 1.45304800 -11.76989300 -16.76478600
H 1.51795800 -12.22379200 -15.92435500
H 2.05677500 -11.03066000 -16.69431800
O -16.80427200 -5.63820200 17.80591100
H -17.37346200 -5.18212700 17.18576600
H -16.02401900 -5.86927800 17.30219900
O -20.26495900 9.89243100 -5.76090900
H -20.74539700 10.51941600 -5.21995400
H -20.78652300 9.09049100 -5.73299500
O -9.01211000 23.78530900 -7.59996700
H -9.74034200 24.08484200 -8.14450300
H -8.79885800 24.53113200 -7.03944100
O -0.64083500 -10.00900900 -8.76299600
H -1.48023300 -9.89886300 -9.21003200
H -0.84186700 -9.91537000 -7.83201000
O -0.87303000 -16.53977700 1.39772900
H -1.24511300 -17.37744500 1.67418600
H -1.40049700 -15.87592300 1.84156800
O -8.80691300 22.18718800 -14.69937600
H -8.64179200 21.39218400 -14.19216300
H -9.14585400 21.87897300 -15.53963700
O 11.44801600 21.51512300 17.49507300
H 10.57773100 21.65165900 17.86993800
H 11.84831600 20.83691700 18.03886700
O 5.17036400 8.78606800 10.91074000
H 4.30759400 9.19057800 10.81821000
H 5.69661400 9.16077500 10.20464300
O 10.43225700 14.83459200 12.81651600
H 10.91620000 15.19162800 12.07160900
H 10.07210300 14.00508200 12.50327700
O -4.45388400 19.56815700 -2.99731600
H -5.32417700 19.88806300 -3.23566700
H -3.94374600 19.61232500 -3.80585000
O -9.61103800 13.72353200 4.73966700
H -10.40967300 13.20006200 4.80838700
H -8.89493700 13.09063700 4.79026200
O -10.25128700 13.95315700 -7.96519300
H -10.15886100 14.81120700 -7.55074400
H -9.89949500 13.33133400 -7.32840700
O -16.64073700 -22.09364300 0.86864900
H -16.91577100 -21.74420500 1.71647600
H -16.64850900 -23.04434700 0.97828100
O 22.42507500 -15.02900000 5.50433700
H 22.27231400 -14.47446900 6.26966100
H 22.28151100 -15.92318800 5.81374700
O -8.19650200 1.73257200 -5.83016200
H -7.40192500 2.08014300 -6.23563000
H -8.88937300 1.88493000 -6.47252900
O -3.58876300 -20.34003800 -6.75051600
H -4.29527800 -19.81925000 -7.13284900
H -3.96147600 -21.21340500 -6.63121200
O 4.24737600 -11.95773300 11.99806600
H 3.37218400 -11.57352800 12.05271600
H 4.63867800 -11.57209200 11.21443300
O 10.92390600 19.33454700 -0.57279800
H 11.18732900 18.49218100 -0.94373000
H 11.69434100 19.89551600 -0.66032300
O -11.33986900 19.74690400 8.45815400
H -11.80902300 19.47104300 7.67052600
H -10.75408000 20.44496900 8.16579600
O -8.17014100 -15.58737100 -21.23573500
H -7.74800700 -15.96682800 -22.00669400
H -9.09823100 -15.80045100 -21.33145800
O -10.36955400 13.73142800 20.98941200
H -9.79357400 14.41503800 21.33217400
H -10.98608800 13.54863200 21.69820600
O -3.19116300 -16.41011800 -17.98478600
H -3.22204500 -15.71870400 -18.64626500
H -2.77298000 -17.15204900 -18.42133900
O -18.27710400 5.44683200 5.83421600
H -19.01841400 5.62514100 5.25522600
H -17.50232400 5.53798800 5.27984800
O 18.71392000 -15.22604000 10.01359600
H 17.88068100 -15.67506600 9.86989200
H 18.52367600 -14.29909900 9.87040300
O -3.85158100 -14.90958500 -0.56641400
H -4.24620400 -15.65123100 -1.02553800
H -3.15006300 -14.60647600 -1.14253400
O -0.94825600 -16.73559100 -11.11100700
H -1.60774900 -17.38564700 -10.86798500
H -0.23447200 -16.86130700 -10.48600700
O -2.77995000 -19.52923700 -17.47719500
H -2.68145900 -18.76037100 -16.91531800
H -2.31138400 -19.30938500 -18.28219700
O 16.36340400 -14.24104800 5.30561500
H 16.70190500 -14.63566200 4.50171200
H 15.82376900 -13.50684100 5.01295400
O -13.43912300 -18.82407600 15.43357300
H -12.49790500 -18.67954000 15.53246800
H -13.81599500 -18.59086100 16.28180400
O -5.77830400 14.25098000 10.70003900
H -6.61234700 13.84206300 10.93181500
H -5.34000300 14.41055100 11.53571000
O -9.71371800 -23.53669200 9.35023600
H -10.25411200 -23.26520200 8.60805700
H -9.64353800 -22.75873900 9.90321100
O 0.80592400 -13.81254700 17.11299100
H 1.23974600 -14.57825400 16.73609200
H 0.47338100 -14.10831600 17.96025300
O -12.07007000 17.57570600 6.03644500
H -11.21704200 17.47513800 6.45928200
H -12.08766400 18.48097400 5.72645200
O -1.66300500 14.82848500 8.94572700
H -1.76048200 14.30010200 9.73811100
H -2.31800800 14.48621800 8.33766300
O 9.62095600 -12.20968100 -17.62138900
H 9.24156700 -11.49532500 -17.10921600
H 10.18873500 -12.67843700 -17.00998800
O -9.57084000 22.33643900 17.54527400
H -9.43876900 22.41337000 16.60018100
H -10.42318300 21.91221100 17.64253400
O -17.38619100 11.31980400 20.12925800
H -16.43142300 11.37270400 20.08256300
H -17.61956700 10.56843100 19.58438100
O 6.19374700 -16.75283900 -21.56977800
H 5.36959300 -16.49892100 -21.15401700
H 6.74566900 -15.97240100 -21.52269200
O -6.62692500 21.12821700 -11.71439200
H -7.52640500 21.00319500 -12.01748900
H -6.52571700 20.52074200 -10.98182900
O -4.21660200 -25.26994600 -1.34823200
H -3.40279300 -25.37250200 -0.85451200
H -3.94748500 -24.93038000 -2.20157100
O 22.92076700 8.59388400 -3.53479900
H 22.56316000 9.39482100 -3.91843700
H 23.64095100 8.88671100 -2.97667300
O -14.14480000 -20.24765400 13.86345000
H -14.75968000 -20.41398200 14.57816600
H -14.38327400 -19.38381700 13.52754400
O 24.63483000 -0.47045500 5.63987200
H 24.97490900 -1.25366700 6.07286900
H 23.69941300 -0.46213500 5.84196800
O -21.90086500 14.34576900 6.30434800
H -22.28454200 14.66247700 7.12230300
H -22.60044500 13.85126500 5.87776700
O -27.05881500 12.47238600 3.30286600
H -27.44500900 11.80553100 2.73478100
H -26.81041300 13.18524500 2.71461000
O -18.07950500 -10.82611300 21.31540000
H -18.19977200 -9.94720200 21.67541700
H -17.16753800 -11.04783100 21.50268200
O 5.47107500 19.92509300 -18.30912300
H 5.71607800 20.80904500 -18.58328200
H 4.77657500 19.66210100 -18.91279600
O -5.30403300 10.50555400 24.21100600
H -4.95652800 9.73015500 23.76991800
H -4.67438900 10.69852000 24.90543400
O 0.76232700 -6.90459000 -19.02803900
H 0.83393100 -7.80128700 -18.70036500
H 0.82226200 -6.98321400 -19.97995400
O 2.76148700 22.83999600 8.26016000
H 2.65601500 21.98414100 7.84428800
H 2.18901300 23.42728100 7.76691800
O -28.48106500 7.82403900 -5.26102200
H -28.58949100 6.87282800 -5.26286900
H -28.21858200 8.04514200 -6.15440500
O 21.24372300 19.03128500 5.67803000
H 21.48146400 18.48274800 6.42579300
H 21.60081000 19.89559900 5.88142200
O -17.77564900 3.37967000 17.87962400
H -16.83496700 3.22772500 17.78693100
H -17.85350100 4.03611000 18.57168200
O -28.41235800 0.29138600 -2.49655000
H -28.15642400 0.13277600 -3.40534100
H -29.36935100 0.28666600 -2.50431100
O -10.07147600 -6.74587000 -8.15050600
H -10.67773600 -7.47908800 -8.25728500
H -10.50828400 -6.14986400 -7.54231900
O -2.43755400 -10.96617500 22.20239400
H -1.55147700 -10.78875800 21.88623900
H -2.75934800 -10.12389000 22.52320600
O 6.48853700 1.07207700 24.55790000
H 7.40811300 0.82355200 24.65369100
H 6.11794900 0.42412500 23.95895100
O 14.66423400 -11.77510600 -14.84126400
H 14.84017200 -11.76803900 -13.90022300
H 13.90586200 -12.34919400 -14.94714900
O -5.93484100 -27.39001200 -8.91002000
H -6.07675700 -28.16282300 -8.36304200
H -6.02199700 -27.70405300 -9.80985300
O -16.07391600 -0.90244300 23.24307400
H -16.25165100 -1.80817200 22.98885700
H -16.93078600 -0.53135600 23.45280100
O -8.49009800 -8.69648500 1.11030800
H -7.86801400 -8.13928900 0.64222000
H -9.14800700 -8.09498200 1.45854400
O 10.53522700 -6.68690300 -27.28189100
H 11.27713900 -6.66643100 -26.67715100
H 9.95182000 -5.99010500 -26.98185000
O 2.14985000 3.69444300 -8.07331900
H 2.36541500 2.79133300 -7.83989300
H 2.19469100 4.18048400 -7.25011200
O 9.91439300 -18.30789900 -6.36012600
H 10.52496900 -17.57161300 -6.31960000
H 10.24075600 -18.86156500 -7.06925100
O -0.57976900 11.68453100 17.51410800
H -0.12303000 12.28002400 18.10853100
H -1.32312200 11.35358200 18.01790900
O 9.84514300 27.19847500 3.04829100
H 9.85756100 26.34682000 2.61115100
H 9.43630300 27.03480900 3.89798500
O 12.94410300 16.99258400 13.67969700
H 13.11399300 16.14812700 14.09754000
H 13.78061800 17.45654200 13.70973600
O -25.84842800 -5.55604300 13.85939800
H -25.34271000 -5.78103100 14.64054600
H -25.23094700 -5.63713600 13.13272200
O -4.08201600 10.99046900 17.06252600
H -3.59938900 10.60796400 16.32950300
H -3.97374900 10.36854100 17.78183200
O -5.04342500 7.53847800 15.21554400
H -4.17082400 7.92311600 15.13078400
H -4.93350300 6.61920000 14.97313400
O -24.32893900 15.37270800 7.50518800
H -24.05944900 15.91740400 8.24494700
H -24.92381400 14.72320000 7.87959700
O -24.49564100 14.55228400 -6.29532900
H -23.96265500 14.64268400 -5.50519200
H -25.37532900 14.82293600 -6.03300700
O -4.28511100 22.57591200 -13.29098000
H -4.68629800 21.99271400 -12.64639300
H -3.56358600 22.99960600 -12.82643600
O -10.79826900 20.31413500 19.25648100
H -11.58754100 19.78055200 19.35081700
H -10.07141900 19.69507900 19.32262400
O 10.31850300 -13.98746600 17.56608900
H 9.64241200 -14.31324600 16.97167300
H 10.82818900 -13.36707300 17.04527300
O -4.64196500 -18.92779800 -15.13877300
H -5.00558700 -18.11260200 -14.79265700
H -4.42616600 -19.45029600 -14.36654000
O -11.69467700 17.70568300 20.07062100
H -12.50477600 18.08801300 20.40844500
H -11.07580500 17.75309800 20.79908900
O -10.53562400 -25.71644600 -9.85351300
H -10.85446500 -24.97360700 -10.36643700
H -10.04683200 -26.25524400 -10.47536300
O -3.43413000 28.72929700 -2.98143000
H -3.78541300 29.61775200 -2.91970400
H -3.33159100 28.43996600 -2.07495900
O 4.11747600 6.28777700 -0.87201900
H 4.04516000 6.87459100 -1.62500000
H 4.80430200 6.66942600 -0.32563900
O 16.27816400 15.67983100 -16.57839700
H 16.05069100 16.60906500 -16.61502500
H 17.12588300 15.61484600 -17.01778900
O 19.16345200 13.56223900 14.96139800
H 19.57844400 12.70018700 14.99617800
H 19.11327000 13.84992200 15.87279100
O -15.44718500 16.18733100 -1.99892500
H -14.51631600 16.27634200 -1.79368800
H -15.90036900 16.67120300 -1.30870100
O 2.91976900 22.03495200 15.37119500
H 2.37109500 22.73617100 15.01932800
H 3.29877800 21.60793800 14.60312700
O 6.47373200 -7.82831400 -27.94025700
H 5.66223500 -8.18614300 -28.30080300
H 7.06367300 -8.57823900 -27.86610400
O 7.52769700 -24.75320100 -14.21905800
H 6.90472600 -25.47939500 -14.25240800
H 7.84237000 -24.65535200 -15.11757000
O -15.08794000 -9.82314100 22.27473000
H -15.06281400 -10.40760700 21.51688400
H -15.54993200 -10.31615900 22.95253100
O 2.00959000 -13.54695800 11.72762400
H 1.55799600 -14.13636800 12.33196000
H 1.51983400 -12.72583100 11.77012500
O -11.22854100 3.49751000 -2.05529300
H -11.17801400 3.78191700 -1.14253800
H -11.78494600 4.14599000 -2.48634400
O -3.45127100 -21.81234600 15.99250800
H -3.97921300 -21.95528500 15.20675500
H -2.81711300 -22.52909100 15.99858700
O 22.15628300 -5.85866300 11.09077300
H 22.50398200 -5.52234500 11.91694300
H 22.15974200 -6.81055600 11.18979700
O -1.97638200 17.74947000 9.69981900
H -2.27180000 16.84776400 9.57247700
H -2.09558700 17.91956300 10.63404300
O 5.34591300 25.50687700 10.09513300
H 5.45056900 25.82237200 9.19731800
H 4.67482700 26.07084100 10.47919800
O -0.01177300 -8.85768500 1.77001800
H 0.23475400 -7.93634800 1.85322300
H 0.19895800 -9.08978200 0.86578300
O 13.72653400 -12.96088500 3.61128100
H 14.02149700 -13.85134800 3.80268000
H 13.37627300 -12.63265300 4.43922900
O -12.66352700 -2.67338200 26.44402900
H -12.00967000 -2.65746200 25.74490100
H -12.32148700 -2.08456600 27.11650200
O -1.91005300 -5.85420900 -1.26532100
H -2.50911500 -5.14009300 -1.04686100
H -2.21180800 -6.18006000 -2.11307200
O 14.09292000 18.66300800 16.88908800
H 13.70060100 19.52446600 16.74578100
H 15.03197500 18.79370900 16.75866300
O 9.72212400 18.53916500 1.12530000
H 10.40835600 17.87347300 1.17532200
H 10.05603900 19.27782000 1.63403100
O 14.04790600 -13.10951000 -19.46892000
H 13.36725300 -12.93753200 -18.81799900
H 13.57994300 -13.19883700 -20.29894900
O 12.41111800 -20.01456000 10.88325200
H 11.77048500 -19.66749700 10.26220600
H 13.26372500 -19.81602100 10.49652100
O 20.88745500 18.86952200 -8.85598100
H 20.52431600 19.29752300 -9.63155000
H 21.74369800 18.54266100 -9.13153000
O -4.78196300 -11.16078400 -27.43391300
H -5.24818200 -10.35644300 -27.66246800
H -5.45021300 -11.73812000 -27.06507200
O 10.51917200 -15.26781100 -7.62990000
H 10.91654400 -15.37951700 -6.76608300
H 9.77834800 -15.87357600 -7.64195100
O -24.50541300 11.96268200 -5.19152900
H -23.96714300 12.31135900 -5.90233900
H -24.92154300 11.18176600 -5.55611600
O -28.43117200 3.25770800 1.45992400
H -27.78332100 2.60774200 1.73267800
H -28.42415100 3.22812200 0.50337200
O 26.21533200 0.37155000 2.22099100
H 26.35364000 -0.27295500 1.52669600
H 26.25695700 1.22106200 1.78222600
O 1.88419800 13.85870300 -25.87030800
H 2.80021800 14.09313500 -26.02034600
H 1.38466100 14.63229200 -26.13096100
O 23.18163100 -0.17062400 12.87002600
H 22.35615400 -0.11959400 13.35225600
H 23.70700700 -0.81377100 13.34569300
O -2.20092400 -20.79142600 6.00039300
H -2.53087200 -20.22291900 5.30433500
H -1.63734300 -21.42489000 5.55652800
O -2.59461500 11.46371300 -7.54020300
H -1.93133000 11.49516900 -6.85054700
H -3.37976800 11.84349400 -7.14622500
O -3.76535200 -14.63830200 -15.77596300
H -3.79674600 -15.55482200 -16.05085700
H -4.09940700 -14.14374100 -16.52411600
O 28.27975500 -3.10692000 2.12390100
H 27.52308100 -3.12575500 1.53768200
H 29.03656300 -3.25128800 1.55617200
O -3.81976100 -29.02425500 -4.08120300
H -3.82834400 -29.57188200 -3.29596800
H -4.59343600 -29.29076500 -4.57750500
O -3.77727100 7.01746600 -0.39104000
H -4.05313300 6.21488400 0.05204500
H -4.51059300 7.62327500 -0.28543700
O -0.63001200 -1.58999400 -1.09213000
H 0.01636400 -1.92580100 -0.47084600
H -0.12047500 -1.10867700 -1.74376100
O 23.88831200 15.30632600 -6.59663500
H 23.23313900 15.57215600 -5.95115500
H 24.65694600 15.84334500 -6.40498300
O 23.06282000 5.73634900 10.90351900
H 22.76152000 4.88421600 10.58784600
H 23.69850800 6.03130500 10.25173700
O -2.74891400 12.58728300 11.27849300
H -3.33918100 13.29881900 11.52721500
H -2.31817900 12.32682000 12.09246100
O -0.21146200 17.93600200 -19.83876600
H 0.43308700 18.63021300 -19.70024200
H -0.60707100 17.79029600 -18.97959100
O -7.31717900 -19.36726500 1.94341700
H -7.63956300 -20.26849700 1.92314800
H -8.02444000 -18.86010800 2.34152500
O 3.48409200 8.08505600 5.22723100
H 4.06701500 8.48117400 5.87519100
H 2.61609700 8.43422000 5.42869200
O -17.88577300 -3.09063000 17.63660600
H -18.73377500 -3.14547700 17.19564400
H -17.67173100 -2.15789200 17.64672000
O 11.59015800 14.86411800 16.45027000
H 11.77090500 15.27832000 15.60627400
H 10.69190400 15.11681500 16.66287300
O -2.22166600 -29.28933600 4.76807500
H -3.10853300 -29.50122600 4.47630000
H -1.64529000 -29.67245700 4.10707100
O -0.07121600 -2.21008300 29.54506900
H -0.82275700 -2.03673400 28.97788400
H -0.05437600 -3.16118300 29.65014500
O 14.68259500 -15.35779000 0.78438300
H 14.42044900 -16.02192500 1.42216400
H 15.28393000 -14.78330900 1.25797000
O 23.37272300 -15.85630300 0.81105300
H 23.96486900 -15.71701600 0.07178100
H 23.94591800 -15.99521500 1.56475600
O -13.21912700 15.72464000 18.29643500
H -13.16118000 14.77256200 18.37860700
H -12.75355700 16.06784500 19.05891200
O 1.84149300 -16.20490400 -2.43713000
H 1.46202700 -15.80615000 -3.22043300
H 2.13396100 -17.07195900 -2.71747900
O -2.93986400 -2.56411200 9.83762500
H -3.62036100 -2.79696800 9.20575200
H -2.43791900 -1.86714300 9.41548400
O -4.67616400 -15.07564800 2.95047500
H -4.96274500 -15.69562700 2.27961100
H -4.66822000 -14.22416100 2.51364100
O -7.39298100 -8.48290600 3.51808100
H -7.05621000 -8.14915600 2.68636100
H -8.23843700 -8.87640200 3.30294900
O -9.40474500 15.52650500 -17.43856300
H -9.88864800 14.72542400 -17.23690000
H -9.71565600 15.79253000 -18.30371200
O 8.28130000 -23.89968600 -10.73577300
H 8.48221800 -23.74388900 -11.65876900
H 8.97469500 -24.48219500 -10.42625100
O 1.19167100 18.03121700 14.15368400
H 1.02241400 18.70862900 13.49868100
H 0.92616700 17.21170400 13.73676300
O 12.44572800 -3.40578000 -26.26896200
H 12.19121300 -3.53186800 -27.18323000
H 13.38605400 -3.58247500 -26.24700200
O 11.08498400 19.45453800 -2.91878400
H 11.04194500 20.25450200 -3.44296700
H 11.34585200 18.76919700 -3.53374200
O -4.27282500 -4.11314000 25.83192100
H -4.37972700 -4.62812100 26.63187700
H -3.83612900 -4.70077300 25.21556000
O -9.00468800 -0.62406200 -28.60990800
H -8.88648600 -0.32946300 -27.70669100
H -8.23834200 -1.16632900 -28.79586200
O -1.10479700 -25.61539600 -2.13861200
H -1.26240100 -25.15526000 -1.31399200
H -1.97333900 -25.86814100 -2.45113700
O 4.78084100 0.34250500 -0.21671600
H 4.39152600 0.31581600 -1.09094900
H 5.72512500 0.38247300 -0.36720900
O 22.55817300 10.29140400 -15.37010500
H 22.92102100 10.58021100 -16.20765800
H 22.58503200 9.33538200 -15.40501000
O 3.88034200 4.12567400 -5.69560100
H 3.65225200 5.02358000 -5.45414400
H 3.19917400 3.58216500 -5.29996900
O -18.59444700 6.97357600 13.03597800
H -18.63135900 7.88439900 13.32855400
H -19.11477100 6.48688900 13.67497300
O 2.12212800 -11.24840200 21.38293200
H 1.48799900 -10.60899300 21.05797400
H 2.06043100 -11.98770700 20.77833500
O -1.93136300 25.27337000 2.83864900
H -1.45954400 24.90145200 2.09324600
H -2.82426500 25.41101800 2.52290500
O -2.87733200 26.92387300 12.92145800
H -3.82703100 26.80291200 12.92323400
H -2.56189700 26.41864700 13.67056700
O 0.31268500 -26.49850000 -12.80314700
H -0.43742400 -26.93141300 -13.21117100
H -0.00517900 -26.20437400 -11.94970100
O -4.77130300 28.99853000 -5.85094800
H -4.49556700 29.24274000 -4.96726700
H -3.97506400 29.04304800 -6.38004000
O -15.53548300 7.83699600 8.82355800
H -16.43194900 7.88797500 9.15568900
H -15.57469500 7.21220600 8.09966800
O -18.61737800 -4.02424300 22.02882200
H -18.83316400 -4.33663400 22.90769100
H -17.70051900 -3.75466300 22.07995100
O 14.69735800 7.20329900 -18.87300800
H 14.49746600 7.92126300 -18.27206400
H 13.87412000 7.02364400 -19.32679100
O -11.59776800 -8.88972600 -26.20086000
H -11.82596500 -8.20127200 -25.57594400
H -11.07594900 -9.51614900 -25.69964700
O 1.36473400 -6.08810500 2.27094900
H 1.46197900 -6.30660100 3.19796900
H 0.47970900 -5.73260600 2.19178600
O -3.32462000 9.73728100 5.77879600
H -2.43112100 9.81462600 5.44377400
H -3.88654300 9.98834000 5.04590500
O 5.34475400 -13.96101100 -12.20208500
H 5.39527600 -13.70522100 -11.28090000
H 5.56028500 -14.89340400 -12.21241700
O 8.65138700 -9.33690000 8.67258600
H 9.01604600 -9.63912300 9.50459900
H 8.13186900 -10.07226900 8.34816400
O -18.95593700 6.42447500 21.42911600
H -19.55903100 7.14932900 21.59472600
H -19.51632800 5.65701900 21.31559200
O 18.87165500 9.91878900 -17.72150700
H 19.48462800 9.67230300 -18.41437800
H 18.09526300 10.23934800 -18.18017200
O 3.56435900 16.69650200 19.10031600
H 3.34565000 17.45221000 18.55475700
H 2.98831900 15.99577100 18.79523900
O -9.84808600 13.05003500 -1.03991200
H -9.32567000 12.64880100 -0.34517800
H -10.23488800 13.82898800 -0.64049400
O 8.78643700 16.79620700 -14.19885600
H 8.68516600 17.57010100 -14.75328800
H 9.22164500 16.14921500 -14.75375500
O -8.35309800 10.59089100 7.48553500
H -7.39993900 10.62348700 7.56913100
H -8.55829500 9.66610500 7.34922200
O -8.43243000 -0.97166700 -4.00943700
H -8.28064400 -0.05692500 -4.24770100
H -7.92366300 -1.47981500 -4.64099000
O -4.84228600 4.15525000 -3.04006300
H -4.84788200 3.20877100 -3.18397000
H -5.40746900 4.51318100 -3.72443900
O 4.71214800 7.94061800 28.05378400
H 4.53681600 7.29924800 28.74259800
H 5.55957900 8.32283500 28.28113000
O 27.29195000 -6.92431800 -8.07680600
H 26.59809300 -7.37519400 -7.59531300
H 27.71890600 -7.60735000 -8.59361700
O -10.49693300 1.67103300 -3.61630400
H -10.23729800 1.64241000 -2.69525500
H -10.39258600 2.58659400 -3.87471700
O -11.26230500 -23.49348200 -4.70001100
H -10.83043600 -22.64444500 -4.60416700
H -12.17889900 -23.33167500 -4.47731900
O 23.98685400 6.18775700 -10.22946700
H 23.09820300 6.49798800 -10.40445000
H 24.49175100 6.43234600 -11.00482000
O 14.14967500 -17.99389900 18.31213300
H 14.34334500 -18.93135000 18.32762700
H 14.17621200 -17.75076300 17.38687700
O 2.01492600 -14.80360700 19.65219800
H 1.68642200 -13.91436900 19.78600000
H 2.85752200 -14.82718700 20.10540200
O -3.55045000 -17.94776700 -4.91797000
H -3.48312400 -18.05384900 -3.96887800
H -3.90647400 -18.77750500 -5.23530100
O -15.82646800 -6.86523700 13.98692600
H -15.16623000 -6.80044900 14.67717900
H -15.71002900 -7.73890800 13.61402100
O 11.44189800 -7.52210100 -23.93309600
H 10.80054000 -6.99919800 -24.41454700
H 11.81486200 -8.11694000 -24.58346600
O -14.94713200 -17.05225000 -0.82163000
H -15.29486700 -16.34856700 -0.27347600
H -14.95299100 -17.82833300 -0.26165100
O -1.77661400 12.09895800 6.81234800
H -2.26868600 12.91964800 6.78241400
H -2.43550700 11.42026900 6.95780400
O -2.22858800 28.23425400 -7.44441500
H -2.07697500 28.77803800 -8.21763900
H -2.92636900 27.63075300 -7.69898800
O 3.35825900 -0.26781500 4.45545400
H 4.29160000 -0.05773800 4.49155900
H 3.13131800 -0.54103900 5.34414000
O -22.61047900 -15.39841000 6.74359200
H -22.47077100 -14.46913500 6.92659800
H -23.18403100 -15.70557400 7.44545100
O 11.25256100 27.79880200 0.79466600
H 11.75522700 27.55627600 1.57252800
H 10.41284100 28.11220100 1.13017700
O -2.35909600 -20.29247800 21.16105300
H -2.93456700 -21.05757500 21.16568300
H -2.00181300 -20.24591700 22.04767400
O -20.34212800 11.16378500 1.57815300
H -21.25012700 11.15431800 1.88148700
H -20.32417800 11.80757700 0.87025000
O 0.05424900 9.56710300 -25.39162200
H -0.14587000 8.67300100 -25.66928200
H -0.01894100 10.09545700 -26.18623100
O -3.02878700 21.85265300 6.87945500
H -3.71638600 22.16086200 7.47002800
H -3.02921300 22.47517700 6.15255700
O -15.63948900 5.22421900 24.40618300
H -15.51845800 4.75478000 25.23173700
H -15.96866900 6.08692400 24.65777600
O 16.77844500 -18.85721400 6.08830000
H 17.30161100 -19.30991100 5.42654000
H 16.14321400 -19.50687900 6.38885500
O 3.23094200 -24.06245800 12.88894300
H 2.38726600 -23.66983400 13.11393200
H 3.77623200 -23.93986300 13.66582500
O -3.09963600 7.22053200 28.25739200
H -2.86091200 6.79519500 29.08120100
H -3.27696600 8.13145500 28.49125300
O -6.27605900 -6.86387200 20.92316600
H -6.83413100 -6.11279900 21.12566800
H -6.51991700 -7.12109700 20.03418600
O 26.31838300 5.02719800 -11.52968200
H 26.06222400 4.44066100 -12.24166500
H 25.83985100 4.71066100 -10.76370000
O -23.27624900 15.67517800 10.42775500
H -22.50823500 15.10358600 10.42779000
H -22.97207300 16.49870800 10.04671400
O 9.31297300 -20.47715700 8.56897100
H 9.37720500 -19.82711900 7.86905200
H 9.86155500 -20.13590800 9.27503300
O 2.89961500 13.26048000 3.12436700
H 2.23953800 13.70343600 3.65789300
H 3.01128300 12.40147500 3.53125500
O -16.80555800 -17.61637800 3.46170300
H -17.49100900 -18.11036500 3.91192000
H -17.19183400 -16.75801500 3.28872500
O 12.71660900 -22.09995700 -1.53947500
H 13.19906600 -21.89283800 -0.73891300
H 13.30822900 -21.86311900 -2.25348500
O -18.29582100 8.83906300 1.31109100
H -18.08905400 9.73429400 1.04207100
H -18.59650600 8.40395000 0.51348100
O 7.36187500 22.15034700 4.55740800
H 7.18732000 22.98960100 4.98372600
H 8.11951500 22.31098000 3.99518500
O 23.37603600 7.22468900 -1.38114100
H 24.06329200 6.96395100 -1.99453900
H 22.56411800 7.18171800 -1.88597800
O 2.46029800 -10.78960500 -22.16745200
H 3.12056700 -11.07750600 -22.79810300
H 1.66515900 -10.65866200 -22.68371100
O -9.95856300 1.20284800 2.15180300
H -9.88627000 1.97550500 2.71246100
H -10.64983700 0.67291100 2.54831700
O 21.37557600 -6.64276300 -11.41759100
H 21.77214900 -7.50960300 -11.32882400
H 20.43989700 -6.78247200 -11.27300900
O -7.06424100 12.53627200 -25.94175400
H -7.20841400 11.80257600 -26.53963900
H -7.91559400 12.96731100 -25.86880500
O 14.48794300 -10.73137900 20.44789800
H 14.91782200 -10.81338600 19.59640400
H 14.75940100 -11.50719300 20.93814300
O 4.49917200 28.78678500 -4.52760800
H 4.20534300 29.44854200 -3.90126600
H 4.54225800 27.97285500 -4.02603100
O 3.45377500 -17.46261600 16.85905400
H 2.77550800 -17.21515800 16.23034100
H 4.04307700 -16.70948400 16.89689300
O 2.47684800 -16.46324700 0.29160900
H 2.51028600 -17.36750400 -0.02106400
H 1.79722500 -16.04380100 -0.23573700
O -25.11283700 10.63783500 12.50261500
H -24.80977100 11.49390500 12.19953500
H -24.72081300 10.00800500 11.89800900
O 20.00839600 -10.23400100 -8.47621300
H 19.38595500 -9.86832100 -9.10502700
H 20.86959300 -10.09087700 -8.86835100
O 14.47836700 -9.79786700 -1.94587000
H 13.77380200 -10.40686700 -2.16783600
H 14.76331600 -10.05743700 -1.06988800
O 7.07489800 21.19776800 7.48241900
H 6.77074400 21.70829600 6.73181000
H 7.68018300 21.77598000 7.94633400
O 28.06284000 -4.91361700 8.25220400
H 27.91893300 -4.32529100 7.51077000
H 28.37856800 -5.72921200 7.86357000
O 5.93679700 -25.39225500 7.44461700
H 6.64279000 -25.97439600 7.72612800
H 6.19660200 -24.52279800 7.74869500
O 4.46452400 -18.72677800 14.75746900
H 4.85774300 -18.01074400 15.25670600
H 3.67477300 -18.96318300 15.24360000
O 3.07215500 2.56778800 26.60172300
H 3.25556900 3.21886600 25.92421400
H 2.20610200 2.79751000 26.93802200
O -5.74053000 -8.10038800 25.53455000
H -5.31181000 -8.92986500 25.32305400
H -6.51034500 -8.06766100 24.96689600
O 4.45051700 8.72026300 2.62916300
H 4.17480500 8.18644300 1.88379100
H 4.59582900 9.59435100 2.26753900
O -11.32926000 1.27590200 22.90946600
H -11.16990200 0.40648700 22.54165600
H -10.58408600 1.44095800 23.48686400
O 19.20859500 12.93721800 -17.58472300
H 19.64978900 13.54859600 -18.17474600
H 19.28157900 12.08410100 -18.01225100
O -10.54023900 -8.49353400 -5.50300700
H -10.78431200 -7.76930700 -6.07962300
H -9.81547600 -8.93161800 -5.94878500
O 2.39304000 -18.74987700 2.68371600
H 3.26270900 -18.35064500 2.71291200
H 1.86186900 -18.23089900 3.28740200
O 2.86364800 -15.49914600 -25.52628400
H 1.98641900 -15.21261900 -25.78110200
H 2.72654000 -16.30753900 -25.03270400
O -9.14526100 28.40041400 -3.12903600
H -9.59959000 28.14955500 -3.93353500
H -9.78244200 28.25655700 -2.42959200
O 4.90407000 -0.97510300 21.92351200
H 5.73320800 -1.08444200 22.38949100
H 4.37429300 -0.41350100 22.48907000
O -0.90973100 13.21465700 -8.22698600
H -1.11476400 12.48296300 -8.80935000
H -0.34099100 12.84292400 -7.55299300
O 3.45450300 1.44884000 8.00091800
H 3.97012900 1.87160400 7.31392200
H 3.99535200 1.50775900 8.78827300
O 0.59693500 24.35181800 -4.00056100
H 0.89145300 25.00941300 -4.63095000
H 0.57767400 23.53002400 -4.49066500
O -11.37717900 22.15802300 12.36052500
H -11.19915100 22.74944500 11.62902700
H -10.75105800 22.40851900 13.03959900
O 12.00358300 -14.56715000 3.23484200
H 12.56313500 -15.32658200 3.07135700
H 11.95420200 -14.49647900 4.18798600
O 5.84622400 -4.60883100 2.53913100
H 5.54992600 -4.53472900 3.44647800
H 5.20890000 -4.10944600 2.02888700
O -8.60675900 -6.17908200 -6.26684800
H -9.33517700 -6.17225600 -5.64562200
H -8.00622500 -6.84729800 -5.93705500
O -3.85827300 -18.59819100 -19.67457400
H -4.65511100 -18.46820600 -20.18908000
H -3.17212100 -18.76896700 -20.31951400
O -1.96766600 23.48814500 10.82822700
H -1.25010400 23.04860400 10.37164100
H -2.61460100 22.80201500 10.99137700
O -28.05808000 0.69046700 -10.59617500
H -27.49399700 1.43746600 -10.39526700
H -28.30668700 0.33169400 -9.74447400
O 1.89985900 -16.65080300 -12.13535200
H 1.63762300 -16.12695500 -11.37813600
H 1.21748500 -17.31585500 -12.22473500
O 3.33258300 22.08264000 -8.78440000
H 3.86781700 21.43106100 -9.23775700
H 3.35886500 22.85803300 -9.34474900
O 2.50571000 -26.78888700 4.02430100
H 1.68505200 -27.08885800 3.63302300
H 2.64082700 -25.90917000 3.67250600
O 12.08616100 -18.57407000 -13.05332600
H 12.72734100 -18.38357900 -12.36837000
H 11.33142200 -18.93885000 -12.59156500
O 24.49859000 12.57280500 9.43912300
H 24.63370600 12.35281600 8.51721700
H 25.12522000 13.27289800 9.62111600
O -9.71873300 16.82216800 -1.72789300
H -10.10779200 17.48788600 -1.16043000
H -9.54671200 16.07655200 -1.15310400
O 8.89911400 -24.72179800 6.72520900
H 9.82129300 -24.80267200 6.48106300
H 8.75989500 -25.39309000 7.39296800
O 2.01404800 8.88533600 19.31403300
H 1.95608300 9.69520500 19.82129500
H 1.29292000 8.34209100 19.63148500
O 0.87598700 -5.05106100 -7.61862200
H 1.09388000 -4.15155800 -7.86352800
H 0.51601600 -5.44392800 -8.41360200
O 0.54651200 17.54330000 22.97635400
H 1.19230700 16.84032200 23.04938200
H 0.72860300 18.12457700 23.71451100
O 16.13940800 19.00440600 0.47124300
H 16.38347900 19.34255900 -0.39052400
H 16.79977000 19.35261200 1.07006800
O 6.80813400 9.17871200 -21.48197900
H 7.35840300 8.59815000 -22.00801500
H 5.91164400 8.88754300 -21.64764100
O 14.01628400 -9.46958400 24.77644900
H 13.12046900 -9.36300600 24.45595100
H 14.56388300 -9.01420400 24.13716600
O 12.55082400 -20.72616300 -12.20381000
H 13.44271500 -21.06806100 -12.26861700
H 12.50498300 -20.31585100 -11.34041000
O -3.75757400 -24.73118200 14.95216300
H -3.49692200 -23.96199200 14.44524200
H -3.25892800 -24.67153200 15.76684800
O 8.86759700 -0.61991100 4.33138200
H 8.32201700 -0.76095000 3.55742300
H 8.76967000 -1.41693500 4.85203400
O 5.49451600 -18.97873500 -22.56268900
H 6.41158400 -18.70387400 -22.56258700
H 5.16688800 -18.74864500 -21.69341700
O -11.00312900 13.69579700 15.20242300
H -10.72199200 14.61018200 15.24017600
H -11.64627000 13.66344200 14.49444000
O -20.68067300 -19.24328700 4.94402600
H -21.31041200 -19.49870100 4.26967200
H -20.10921900 -18.60352000 4.51969700
O -2.82320100 18.76633400 7.43729100
H -2.79918200 19.21608200 8.28210600
H -2.16606700 19.21029500 6.90157600
O 23.00804600 8.91193400 8.40939900
H 22.81375900 9.61195800 7.78587600
H 23.37455800 9.35588800 9.17391800
O -14.09491600 20.21321200 14.73363700
H -14.25393200 20.39392600 13.80702100
H -14.88342800 20.51566800 15.18384500
O -12.27624800 8.87685800 3.02196800
H -11.38130500 9.17990600 3.17624300
H -12.28678300 8.59032700 2.10889300
O -6.74956300 23.04535200 -8.11666000
H -6.05019000 22.42078400 -7.92338600
H -6.84319700 23.56680500 -7.31964200
O 6.79975200 -19.29487700 -12.33661300
H 6.15723200 -18.59084300 -12.24681200
H 6.37068700 -20.06955200 -11.97371000
O 10.30820700 12.89974600 16.80582700
H 11.08674700 12.37289200 16.62455200
H 9.67622800 12.28681500 17.18110700
O 10.05836700 -9.53920900 4.01707300
H 10.73243200 -9.94942600 3.47492800
H 9.23268300 -9.91499900 3.71220300
O -18.11206000 -16.76941700 -13.15600800
H -17.86869500 -16.69937100 -14.07927900
H -18.88616300 -16.21472800 -13.06113900
O 16.00172400 11.89793500 21.62392300
H 15.19929100 11.42037800 21.41272700
H 15.72839400 12.58509900 22.23138800
O 15.39676800 2.94096300 -22.21141300
H 15.40573100 3.89703800 -22.26041200
H 15.12640300 2.65083900 -23.08241700
O -12.48663600 10.82911800 8.79136700
H -12.84982700 11.56943900 9.27776200
H -12.39493300 11.14441600 7.89242600
O -23.75535600 -13.25590600 0.05223200
H -23.68242000 -14.02025400 -0.51962000
H -23.91189100 -13.61415500 0.92577100
O -1.54594700 -22.64697700 19.47006600
H -1.83096900 -23.29018300 18.82075000
H -1.43829900 -21.83174700 18.98044500
O 4.76500700 -16.83009800 -24.13565700
H 5.63628000 -17.17635400 -23.94187300
H 4.90865300 -16.15466200 -24.79828000
O -2.53459700 17.37061100 17.64403900
H -2.64711700 16.83624000 16.85768700
H -2.57537700 18.27588100 17.33624300
O 10.14472400 14.74508600 20.39921700
H 10.08044800 13.90213900 20.84851800
H 9.98691700 15.40049900 21.07851600
O 25.85054400 10.65206900 -8.10029600
H 26.37495000 10.29344600 -8.81650200
H 25.63563400 9.89937600 -7.54967500
O -3.44383900 -20.64836200 -9.53448800
H -4.27609100 -20.89578600 -9.13112700
H -2.97187200 -20.16843700 -8.85416700
O -16.13692600 0.82035700 21.87679800
H -15.24505400 1.10144500 22.08201800
H -16.70216700 1.38762200 22.40085000
O 13.30282500 9.86022700 23.02401000
H 13.42932600 10.43032300 22.26536000
H 13.51134500 8.98046500 22.71023400
O -23.67202200 14.44417900 -1.71763100
H -23.68759200 13.69635200 -1.12007500
H -23.07206600 15.07119800 -1.31412500
O -2.06760000 13.23283200 22.16426100
H -2.88152500 13.29142800 21.66360800
H -1.37740200 13.46394800 21.54286800
O 4.73645500 -16.83039500 9.29969600
H 4.71348000 -15.98890000 8.84371200
H 4.90364100 -17.47836100 8.61551300
O 14.01030300 -15.80479700 -4.47424200
H 13.90557100 -15.10110400 -3.83360900
H 13.78088000 -16.60530800 -4.00258100
O 10.78732500 -18.38214700 14.31403600
H 11.68781700 -18.66133300 14.14751000
H 10.54776400 -17.85215400 13.55401300
O -7.22211300 -10.36395000 -2.82373500
H -7.38671500 -11.20926900 -2.40552000
H -8.02010600 -10.17146700 -3.31574600
O 23.22923100 -18.82218600 2.48299300
H 23.11713200 -17.88471100 2.32445000
H 22.95330200 -19.24556600 1.67026400
O 4.88679900 -22.03970300 9.68592300
H 4.00359400 -21.84732900 9.37048200
H 5.44026000 -22.01070500 8.90569400
O -5.54615200 -15.45947300 4.94154200
H -6.42275400 -15.48966100 5.32523500
H -5.39452000 -16.34077700 4.60062000
O -14.28986300 -23.60448700 11.77417700
H -14.57245600 -22.73036300 11.50471400
H -14.14455400 -24.08073100 10.95686800
O -15.36070900 15.85271400 8.56696100
H -15.68517500 15.22737700 7.91870400
H -15.18822700 16.65422300 8.07325000
O -13.95152100 11.05761700 -18.72705600
H -14.15330400 11.78862800 -19.31140800
H -13.68732700 11.46530200 -17.90248900
O -10.41851500 22.93283300 6.15336700
H -10.24908300 22.11366900 6.61901200
H -10.19095500 23.62322200 6.77585900
O -7.74017800 10.06626300 9.65275700
H -7.29313600 10.26634900 10.47536300
H -8.59769800 10.48434400 9.72882000
O 10.25883800 -11.01332000 7.75547800
H 10.50182500 -11.90967700 7.98799600
H 10.72209500 -10.46010900 8.38418200
O 0.70281200 28.69735700 -7.57257500
H -0.07970700 29.11894100 -7.21691600
H 1.28196500 28.57541000 -6.82049200
O 7.74393300 6.90983800 -1.09112000
H 8.09888000 6.56059500 -1.90880200
H 8.13785100 7.77734100 -1.00065000
O -9.82806500 -25.31907800 -4.29704400
H -10.50019200 -25.73463900 -3.75656800
H -9.07569600 -25.20939800 -3.71581400
O -4.53609900 -10.42509500 23.78419100
H -5.05439800 -9.78271500 23.29913800
H -5.16773900 -10.88924200 24.33329600
O 9.52254400 -21.50418200 -5.72217600
H 8.92336800 -21.95855400 -6.31471000
H 10.01121300 -20.89925300 -6.28001200
O 26.85753300 -7.72820000 -10.61429900
H 26.51967400 -8.26245300 -11.33331700
H 26.09340300 -7.52860100 -10.07376000
O -13.07075800 6.64935600 8.80878500
H -13.02794300 7.52871100 9.18490000
H -13.88485600 6.27536900 9.14537900
O -26.92975700 9.12637200 8.68926500
H -26.22617900 8.48006600 8.62739300
H -26.79650600 9.55753000 9.53322200
O -17.38327400 24.35339100 2.21383300
H -17.82877000 23.92757300 2.94648200
H -16.63690900 23.78813500 2.01548600
O -2.96367100 20.12737200 -15.60080500
H -2.41548600 20.49048500 -14.90495700
H -2.56283100 20.43020600 -16.41538300
O -13.28554800 -18.49404800 1.38058500
H -13.59192800 -17.58967900 1.44993500
H -12.34105100 -18.44756500 1.52783800
O 16.15768800 -25.27617800 0.27444100
H 15.92301000 -25.39934700 1.19439600
H 16.95534600 -24.74760700 0.29093300
O 22.34974700 -16.11046100 -1.69206000
H 21.98754900 -15.72781900 -0.89271000
H 21.68883300 -16.73578700 -1.98883900
O 0.72016200 17.78754500 -11.50158500
H 0.54310600 18.00752300 -10.58680500
H 0.98930800 16.86923700 -11.48788100
O -16.57335200 15.02467500 -19.09725400
H -17.39524100 14.74009200 -19.49734400
H -16.33348000 15.82392800 -19.56583900
O 1.81647300 -21.26457700 8.60149700
H 2.17556900 -20.38028300 8.67656600
H 2.29754800 -21.66670500 7.87846400
O 2.28286200 -25.52547600 -13.60646200
H 2.23477800 -26.28228000 -14.19084000
H 1.90549500 -24.80201000 -14.10657000
O 16.68011000 6.86927400 -23.47019200
H 15.72588300 6.81071800 -23.41935700
H 16.86697500 7.80450300 -23.54985300
O -15.73525800 18.98666600 -7.55741100
H -15.39328300 19.76776300 -7.99272900
H -16.36467100 19.31605600 -6.91611600
O -4.38889100 24.84904100 -11.37482500
H -3.65902800 25.12124800 -10.81826000
H -4.11026800 25.05493600 -12.26695300
O 0.86205400 16.69732300 -8.84898600
H 1.20072400 16.20271200 -8.10251100
H -0.03837800 16.91831000 -8.61170200
O -2.72561400 -18.03594200 3.16139500
H -3.37126200 -17.33054800 3.20743600
H -2.74448200 -18.44580500 4.02601800
O -0.09733500 -21.07900800 -3.78969000
H -0.91763000 -20.61580700 -3.61904100
H -0.34183900 -21.81957000 -4.34440000
O -22.88478600 14.56946500 -7.79248300
H -22.12678700 14.94491800 -8.24085100
H -22.55147500 13.78522500 -7.35683600
O 5.34852800 -23.61043600 3.82084600
H 5.68021700 -23.17259300 3.03673000
H 4.47432600 -23.91790000 3.58177600
O 11.26613900 22.82121000 -8.39110500
H 11.32582500 21.92783900 -8.05215200
H 11.27594700 23.38161400 -7.61536800
O -2.47468000 -11.13888200 4.88811500
H -3.03934500 -11.90625100 4.79398800
H -1.83243900 -11.21594300 4.18277500
O -9.25566100 11.97466200 15.32207400
H -8.98972000 12.83977500 15.00995800
H -8.45828600 11.44604900 15.29602500
O -16.39013700 2.05959400 19.59607600
H -16.88068100 2.26604100 20.39188300
H -15.59767500 1.61814700 19.90111000
O 8.92420500 -10.30044300 25.03413100
H 9.70092400 -9.85653600 24.69322600
H 9.17759200 -10.61040900 25.90340300
O -14.07467800 18.82904200 -1.66172300
H -14.83956000 18.42995000 -2.07674500
H -13.94520800 18.33401800 -0.85295500
O -1.60734100 15.42532900 12.22099700
H -1.50489600 15.95485700 11.43000600
H -1.54227100 14.51848900 11.92212300
O -15.70248800 9.16411800 11.70643200
H -16.17003400 9.85296400 11.23372300
H -15.12829900 9.62774500 12.31575500
O -11.70137300 1.31730900 5.01020400
H -11.72456700 0.40739500 4.71341800
H -11.46788000 1.82530900 4.23345800
O -25.74437400 2.68510500 3.12982000
H -25.15087500 2.04504900 3.52307500
H -25.24590600 3.07753600 2.41327000
O -12.06201300 21.70616700 4.99180600
H -12.43066600 22.50181500 5.37599700
H -12.00705100 21.08362500 5.71660800
O 21.57302400 18.07600000 -6.10786700
H 21.30389000 17.22636900 -6.45751900
H 22.44231500 18.23153000 -6.47673100
O -23.83883500 15.88857800 1.04085700
H -24.51066200 16.00688700 0.36913200
H -23.01401400 16.10695100 0.60738100
O 2.06519000 -2.29392700 4.55009400
H 2.98242400 -2.51995800 4.39467500
H 1.83528900 -2.73863100 5.36575300
O 9.07772300 -15.45515500 -2.23503800
H 9.32490800 -14.56540000 -1.98245500
H 8.82905700 -15.88484800 -1.41684200
O -25.07358600 8.85021600 0.32640200
H -24.49855200 8.13946800 0.04226200
H -24.87635200 9.57868900 -0.26210700
O -14.15253600 20.75170500 6.06827200
H -13.75631900 20.49734600 6.90186400
H -15.08145600 20.54093900 6.16102500
O -3.66970400 16.06750800 2.77264300
H -3.67490400 15.62969900 3.62402900
H -2.84896800 16.55932700 2.75204700
O 4.57497200 -14.95115900 -2.80310800
H 3.69357300 -15.20532400 -3.07714800
H 4.73286600 -14.10807000 -3.22759300
O 18.42325700 -8.64654700 21.89186100
H 17.77143800 -8.59214400 22.59095600
H 18.13097200 -8.01873900 21.23129800
O 11.67665800 -14.32055600 -4.90680300
H 12.51157300 -13.86113200 -4.99849400
H 11.91112200 -15.24324800 -4.80890900
O -22.63927800 12.04450900 3.56319900
H -22.57642200 12.13178700 4.51451000
H -22.41581700 12.90942100 3.21982100
O 7.93039600 -4.44368000 -24.71075800
H 7.06952900 -4.64613900 -24.34404300
H 7.91879500 -4.81821400 -25.59138700
O -18.99058300 5.76450500 -0.50240700
H -18.71226000 6.50733500 -1.03841300
H -19.94699900 5.79806900 -0.51012300
O -12.87420000 9.59063500 5.27298300
H -13.03801900 10.04477800 6.09971200
H -12.02022400 9.17329200 5.38463600
O 5.94769000 -11.37947600 0.13268800
H 6.84375400 -11.21567800 0.42730900
H 5.55257500 -10.51200600 0.04726900
O 7.96901900 -24.43033200 10.39484700
H 7.13895900 -23.97701100 10.54337800
H 8.54599100 -24.12645600 11.09533300
O 24.79410600 -4.96872400 -7.98189700
H 25.35770400 -5.68791600 -8.26769900
H 23.93697300 -5.36867700 -7.83602900
O -15.72465500 15.06724000 3.05984500
H -15.44034600 15.61397200 2.32716800
H -16.62666400 14.82410800 2.85204200
O 11.51125800 -24.00232900 -4.15272000
H 11.46570500 -24.67649100 -4.83094700
H 11.14129600 -23.21811700 -4.55775900
O 14.16109500 -13.58039000 -11.03735500
H 14.01456900 -13.69784200 -11.97612900
H 13.29935600 -13.37334900 -10.67616600
O -11.37418800 8.21410300 7.54742600
H -11.88166900 9.01792000 7.66102600
H -10.46496300 8.50355900 7.47365300
O -20.30534900 -18.09717700 1.75187900
H -20.49554700 -18.87987500 2.26934600
H -21.15002700 -17.82664000 1.39237200
O -0.28752800 -25.70247600 9.01682900
H -1.14502000 -25.62340000 9.43517800
H 0.04871300 -24.80767300 8.97007600
O 5.27273800 -4.60297700 26.81049400
H 5.71982300 -5.23155100 27.37756700
H 5.97037000 -4.05920000 26.44507100
O 2.98455600 1.37482000 -3.34978000
H 2.89051800 0.73675800 -2.64225300
H 3.33545300 2.16009900 -2.93010700
O 11.24008000 -17.91250700 -3.94919700
H 11.81211900 -17.42472300 -4.54198700
H 10.94857600 -18.67107800 -4.45468000
O 23.24110600 -6.83185800 1.30996000
H 23.58483700 -7.61903800 1.73276000
H 22.99971300 -7.11040800 0.42675300
O 3.94792300 17.21487600 21.37782900
H 3.63188100 17.39038300 22.26432600
H 3.70974100 17.99141500 20.87169200
O -13.97006000 -15.22761800 18.52463700
H -13.42576500 -15.77552900 19.09041000
H -14.00969000 -14.37905600 18.96541900
O 16.93565100 18.61183800 7.04070800
H 17.17977300 19.36237600 7.58261200
H 16.58726000 17.96579400 7.65484800
O -6.67706700 1.80647000 -26.70172600
H -6.46518100 2.72328700 -26.87811200
H -6.49118100 1.34732800 -27.52059800
O -4.00797800 -0.04053900 8.13931600
H -3.94427100 0.14312600 9.07674400
H -3.17067100 -0.44229300 7.90817300
O -9.18401300 -13.62317100 22.69485100
H -9.30395200 -13.13035000 21.88287500
H -8.24120900 -13.60552300 22.85833200
O 20.62987900 -0.10428300 -18.22208900
H 20.32380800 0.31981300 -19.02397700
H 19.99633200 -0.80144600 -18.05327300
O -2.23619300 -15.02359400 4.45066600
H -2.72848000 -14.51597700 3.80526700
H -1.92666700 -15.79457600 3.97558900
O -3.58981400 -29.73969300 1.63783900
H -2.89956800 -29.73802100 2.30125400
H -3.64368000 -28.83371300 1.33417000
O 0.80311900 -10.39793700 -4.80116400
H 0.46977500 -9.54056300 -4.53591900
H 0.02507100 -10.94630300 -4.90042300
O -15.81210400 -17.50473400 18.53539600
H -16.36552800 -16.73071300 18.64111900
H -14.96800300 -17.16676600 18.23675300
O 21.81044400 -13.39065900 -2.07144500
H 21.92765500 -13.54322100 -1.13360300
H 21.48743800 -14.22174900 -2.41911300
O -4.42705900 -10.55638100 -8.62478200
H -4.99068000 -11.19024200 -9.06875700
H -4.97754000 -10.16952500 -7.94417200
O -2.33715400 9.77593400 23.22775100
H -1.75919700 10.27252200 22.64815800
H -2.88073100 10.43483300 23.65936900
O 2.14961700 -3.22434800 8.73630400
H 1.68091900 -3.25184500 9.57064700
H 1.82802600 -2.43704200 8.29738900
O 20.11581700 15.74918300 -1.84596900
H 19.76459000 14.98570800 -2.30456300
H 20.16817700 16.43524600 -2.51117000
O -7.77786500 -26.57583600 -5.63419400
H -7.46475200 -26.44769900 -6.52979600
H -8.73174600 -26.60325000 -5.70683800
O 15.89201700 -3.66509900 -18.21399200
H 16.70762100 -3.28222300 -17.89032900
H 15.43868000 -3.97972600 -17.43206300
O 10.19011700 -12.48135800 2.03057800
H 10.01845000 -11.91052200 2.77973700
H 10.37591000 -13.33978000 2.41072200
O 9.82641000 -25.27644500 12.82752300
H 9.02855500 -25.71740500 12.53504600
H 9.52400200 -24.47661100 13.25732700
O 10.90406100 10.09402700 9.12643300
H 10.21610800 10.08362800 9.79214700
H 11.50429000 10.78689600 9.40134100
O 0.32624100 -17.21371300 9.89369900
H -0.46311100 -17.33515500 9.36574200
H 0.73712700 -18.07740700 9.92718800
O -4.48211300 -22.35547900 -14.02386300
H -4.99605700 -23.16194000 -13.97865900
H -5.11640100 -21.66870600 -14.22865400
O -13.76367900 11.19733500 -14.38018000
H -13.94081900 11.45705600 -13.47589700
H -14.29292000 11.78808700 -14.91574800
O -6.13346300 9.34811000 -6.05852700
H -5.60753900 9.91367800 -5.49275500
H -6.90266000 9.12152300 -5.53611800
O 16.59037300 -16.54411500 1.42361800
H 16.25532500 -16.92265000 0.61059000
H 16.87799900 -17.29304400 1.94543500
O 13.23300300 -25.63249200 5.64117500
H 13.88914300 -25.99015700 5.04274600
H 13.42817600 -26.03055900 6.48933000
O -8.84214600 -16.84682100 -9.08070700
H -9.01805000 -16.19990400 -8.39724700
H -8.91518300 -17.69505300 -8.64357400
O 10.97809500 -14.04872800 14.68599600
H 10.20277400 -13.54993700 14.94415300
H 11.05734200 -14.74067200 15.34238900
O -9.62619000 20.42154200 -0.35977600
H -10.54477800 20.61449600 -0.54826200
H -9.19553500 20.40805100 -1.21433400
O 29.00178500 2.59752500 -0.78484000
H 28.66547800 2.04310300 -0.08051400
H 29.83987900 2.92761800 -0.46149300
O -20.57873800 20.11067900 -4.51440400
H -21.13390000 20.63776800 -5.08932600
H -19.83622400 19.84920900 -5.05866800
O -11.98592600 -16.61396000 -11.07205400
H -11.87538400 -16.39171500 -11.99668800
H -12.25365900 -17.53277700 -11.06845600
O 18.96730600 -15.70751000 -15.96324900
H 18.83061300 -16.32804900 -16.67935600
H 19.89968700 -15.76938600 -15.75647600
O 16.41194800 -11.73217400 -3.31462400
H 16.10809200 -11.07561300 -2.68759800
H 16.38290700 -12.56171800 -2.83825300
O -7.58941900 -18.00957700 9.55004400
H -8.00159800 -18.60792800 10.17345800
H -6.87961600 -17.59318300 10.03862800
O 10.17039500 -8.86604400 -6.89681100
H 9.36276600 -8.84537700 -6.38312700
H 10.81611300 -9.28275600 -6.32644500
O -7.41785100 13.14429300 13.05133600
H -7.51671100 12.29069800 13.47343100
H -6.47699200 13.31909400 13.06341200
O -1.32037100 2.75003100 -25.15546000
H -1.46265300 2.32825400 -24.30786200
H -1.75452000 3.60002200 -25.08513100
O -0.24222300 28.03952900 9.54530700
H 0.15048600 28.13519900 10.41317100
H -1.12869100 28.38896400 9.63468500
O 7.57492200 0.04300000 5.98277500
H 7.18613400 -0.56171600 6.61501300
H 6.87507000 0.65889000 5.76643200
O 0.04261800 1.22285200 -7.41462400
H -0.39098400 1.95917700 -7.84633700
H 0.68074400 0.90285900 -8.05205400
O -0.38664900 -5.48480000 -29.49189500
H -0.30982100 -5.00124700 -28.66919500
H -0.24194400 -6.40076100 -29.25526800
O 8.20800500 0.18183500 -1.76237000
H 8.19685800 -0.08356200 -2.68215400
H 7.54979400 -0.36815900 -1.33789100
O -24.02649500 -10.43341400 12.30104700
H -23.22133400 -10.71690600 11.86756100
H -24.19465700 -11.09709300 12.96975400
O 3.22965600 14.73245800 9.55640900
H 3.66294900 13.99654200 9.98912900
H 2.88223800 15.26896100 10.26871700
O -1.78334700 -17.03956900 21.96068000
H -1.20327700 -16.74710900 22.66392100
H -2.16322700 -16.23720700 21.60315500
O 22.28908600 -13.46865500 3.96120900
H 21.78462000 -13.04945300 4.65859400
H 22.05157600 -12.99464600 3.16445200
O -1.85977000 -20.28044800 15.45555300
H -1.07593800 -20.33481700 16.00255700
H -1.77006100 -20.99275100 14.82270800
O -23.80660400 -12.76934200 10.80858000
H -23.96860000 -13.65394600 10.48026000
H -23.54456300 -12.88804700 11.72135600
O 2.88944700 -5.03702300 25.12447300
H 2.89816100 -5.32207300 24.21056200
H 1.97134700 -5.08547500 25.39029300
O -12.89371600 -15.81781900 14.13249100
H -13.02690800 -15.34522800 14.95436600
H -12.60089200 -16.69080000 14.39340600
O -7.97470800 -22.60733500 7.82729700
H -7.36966100 -22.31848900 7.14388800
H -8.36694300 -23.41132600 7.48719900
O -7.02374700 -1.18341900 -26.90608800
H -6.43106700 -0.62661600 -26.40085200
H -7.67834400 -1.48420200 -26.27605000
O -27.42422400 4.47541400 -5.00704800
H -27.18375600 4.42341200 -4.08182700
H -27.32164700 3.58408200 -5.34009600
O 7.44869900 25.94549400 6.77577800
H 6.95419200 25.93931200 7.59552500
H 6.98490000 26.56377700 6.21139000
O -13.05833900 23.01128000 -10.36212000
H -12.74046400 23.31862900 -9.51297100
H -13.38641200 22.12723300 -10.19857800
O -4.87215300 12.67229300 7.08307600
H -5.68991100 12.17691600 7.03371600
H -4.34998900 12.36271200 6.34319600
O -23.19059300 6.48758100 16.41815000
H -22.82964900 5.61207300 16.27754900
H -23.72055800 6.41252700 17.21151100
O -19.58004200 -16.87914700 9.97078500
H -19.68427400 -17.47471000 10.71307900
H -19.62791600 -16.00129400 10.34893900
O -8.16494500 -19.23767000 13.25620700
H -8.08483000 -19.15436300 14.20657800
H -9.06610600 -19.52364200 13.10773300
O 21.46778000 -18.83083600 3.80099900
H 21.00448100 -18.71849300 2.97076000
H 21.74046400 -19.74815400 3.81031700
O -9.95453700 -20.31080300 8.50726300
H -10.39432200 -20.68719800 9.26981000
H -9.10861100 -20.00572400 8.83475900
O -14.73396300 -18.73065200 -10.09926500
H -14.78525000 -18.16720500 -10.87157200
H -14.12676200 -19.42933800 -10.34228900
O -3.08039100 -27.71645800 10.16674400
H -3.65893400 -28.01066100 9.46297300
H -2.92434100 -26.78933700 9.98782600
O 5.08274000 15.04293100 18.60729200
H 5.81961200 15.62570600 18.42302500
H 5.45746000 14.16230500 18.60749900
O -7.24941000 14.51449900 -0.48523700
H -6.69326800 13.95941200 -1.03218000
H -8.12845600 14.42268500 -0.85234100
O -8.69980400 -10.31243600 -23.90104500
H -9.64925200 -10.31810100 -23.77825400
H -8.40132300 -11.15664200 -23.56319700
O -1.68568600 22.34365900 -13.76434700
H -1.85161200 21.65161100 -13.12395700
H -0.87993300 22.08143900 -14.20923000
O 10.79436700 17.55456900 -15.37878300
H 10.86055600 18.23155700 -16.05248100
H 11.62717300 17.08460000 -15.41725100
O 0.82206400 -14.81060800 -13.67954600
H 0.35758300 -15.41722300 -13.10262400
H 1.44438800 -14.35632800 -13.11186700
O -16.86446900 -13.75776600 -14.56050300
H -17.22536700 -14.60828200 -14.30963200
H -16.87408700 -13.23789100 -13.75703900
O -5.31300300 20.36995800 16.88109700
H -6.11183500 20.01598600 17.27242000
H -5.34295400 21.30899200 17.06340600
O -5.60815100 -1.06475500 -21.90979600
H -4.82179800 -1.35635700 -22.37150800
H -6.26167500 -1.74259000 -22.08115300
O 7.58999500 -0.22866700 -5.66174500
H 8.51663600 -0.22587700 -5.42114100
H 7.12833000 -0.49305000 -4.86620500
O -3.55181900 -25.50293600 -4.84229200
H -3.00401500 -25.54293700 -5.62643000
H -3.02413500 -25.03538400 -4.19509700
O 2.82432500 23.89361900 -3.91388000
H 3.26667100 23.28915400 -3.31762900
H 2.68566100 24.68991500 -3.40143400
O -14.05255000 10.94626300 -1.43012800
H -14.31030400 10.82807700 -0.51571100
H -13.10730800 11.09373800 -1.40394300
O 23.25904600 18.71947200 -2.52843200
H 22.84715900 19.13821300 -1.77241200
H 23.85244400 18.06675800 -2.15727000
O -19.73367300 16.84931900 13.05713100
H -19.42881600 15.95293900 13.19899800
H -20.08441700 17.12839600 13.90271500
O -22.99765900 -17.52077200 -5.18972300
H -22.39547900 -17.11937000 -4.56297100
H -23.82356300 -17.61347800 -4.71516600
O -10.04530700 -21.52241200 -10.85130100
H -9.89368300 -21.01763200 -11.65053200
H -9.97968000 -22.43840500 -11.12068500
O 6.16424100 -28.17205100 7.23796400
H 5.89933800 -28.69189800 6.47892000
H 7.11962400 -28.22596900 7.25386700
O -11.67606800 7.95879500 25.71773100
H -11.77060100 7.66910700 24.81014800
H -12.52931900 7.79653600 26.11966600
O -12.98475900 9.39485500 10.38323400
H -12.56741600 9.15224600 11.20999200
H -13.88956000 9.09386600 10.46483600
O 26.43653900 3.06104000 12.19804600
H 27.32565200 3.29875000 11.93435000
H 26.39183300 3.26644600 13.13170900
O -10.64851300 -22.37217600 -13.21539800
H -10.62687100 -21.52531800 -13.66140900
H -10.24998100 -22.98675800 -13.83133500
O 18.92288600 -5.61213400 -14.02632800
H 19.56786400 -6.08700900 -14.55078900
H 19.17376600 -5.77589100 -13.11739400
O -24.30706100 1.94052500 -16.59751700
H -25.17292400 1.77925200 -16.22223800
H -23.74009700 2.11465700 -15.84642100
O 13.90434700 -16.30177900 20.25099000
H 13.86171300 -15.60341400 19.59751400
H 14.71196000 -16.77609700 20.05426700
O -2.95351900 12.83005700 4.69370800
H -2.81082700 11.89528000 4.84335100
H -2.76019900 12.96474600 3.76612900
O 20.70600400 -0.81457400 -21.69377200
H 19.89274500 -1.30960900 -21.79433800
H 20.47790600 0.08592300 -21.92397600
O -10.08797700 6.34649500 2.97617600
H -10.58988500 7.15286200 2.85607900
H -9.27249800 6.48846500 2.49580500
O -6.25722700 0.56938000 -3.45853500
H -5.49869200 1.10921000 -3.23544100
H -6.87346400 0.69812300 -2.73770700
O -8.01179900 21.25992200 -18.24461000
H -8.12860100 21.65163200 -19.11033700
H -8.38524000 21.89447200 -17.63321300
O 7.11044200 4.62112300 -25.76486700
H 6.76326000 5.23437100 -26.41290500
H 7.87315500 4.22316400 -26.18416900
O -3.91691500 3.37575500 -7.95526300
H -4.57005900 3.68741900 -8.58202500
H -4.18201900 3.74924900 -7.11494300
O 0.20836000 -8.53442500 -2.15754200
H 1.04764300 -8.09992300 -2.31042400
H -0.33414500 -8.29677100 -2.90929100
O -5.17399200 -20.25290600 0.55504900
H -4.43739600 -20.41088200 -0.03574000
H -5.63012900 -19.49702600 0.18558600
O -8.40369900 19.26935600 -20.11416300
H -8.59823700 18.57563400 -20.74461300
H -8.47390300 20.08353200 -20.61226600
O -1.88786400 -10.22900100 25.50766500
H -2.30398700 -10.96935200 25.94957500
H -2.58472100 -9.82596900 24.99010000
O 5.51603200 25.40115200 -7.87288300
H 5.59954800 25.33455100 -8.82427700
H 4.60705500 25.16636600 -7.68700000
O 3.39381800 -5.68429600 8.50214500
H 2.86957400 -6.44759100 8.25902000
H 3.72203500 -5.87863800 9.37988200
O -26.96559300 -3.08174400 1.32252300
H -26.03692300 -3.31284200 1.34947300
H -27.38433700 -3.66455200 1.95569400
O -2.83939200 -2.19909500 -26.57570600
H -2.92265000 -2.21470400 -27.52932300
H -3.39215100 -2.91680000 -26.26704000
O 3.82311100 -24.15043400 0.17004500
H 3.80113000 -24.21490500 1.12499100
H 4.14680000 -25.00025600 -0.12819100
O 15.07688100 -13.31195000 18.60987100
H 14.67199400 -13.13295000 19.45874600
H 15.61085000 -12.54015000 18.42247000
O -0.55801800 -0.26883700 27.69583400
H -1.40851300 -0.08440900 28.09484100
H -0.65526100 -0.01672500 26.77773800
O 17.70409500 -20.60585800 8.28308800
H 18.07402300 -19.82722500 7.86662000
H 17.17441600 -21.02228300 7.60342100
O 8.15209100 2.70089900 2.87552900
H 8.81005800 3.37614700 2.70915200
H 7.91738700 2.36530100 2.01054100
O -17.93840900 23.66523400 -3.68828900
H -18.47289900 23.45719000 -2.92173900
H -17.28557900 24.28993500 -3.37288700
O 15.45891000 -14.35854300 -20.60381400
H 15.62470400 -15.29914800 -20.53797000
H 16.04037700 -13.95869900 -19.95733300
O 0.02056000 2.59725600 5.91161800
H 0.17316000 2.03074500 6.66815000
H -0.49060600 2.06470900 5.30250400
O -21.19685600 10.76733500 15.03152300
H -21.47253200 11.47548700 15.61383500
H -21.23599800 9.97592000 15.56822300
O -5.03736400 -13.57091600 -3.44518800
H -4.42371900 -13.30122300 -4.12875800
H -4.49132000 -13.95615000 -2.76009800
O 7.92213000 9.74700700 22.74566400
H 7.32980000 10.17580700 23.36359500
H 8.69354100 9.51497600 23.26238800
O 18.53331900 -12.89665200 -2.52100900
H 19.24802700 -13.51214000 -2.35690500
H 18.47063600 -12.83832200 -3.47420700
O 27.01049400 6.09708100 -9.47964500
H 27.71983300 5.88595100 -8.87233600
H 27.44667700 6.42908800 -10.26413900
O 2.86373500 19.40354000 22.70100000
H 2.12525600 18.99129400 22.25237400
H 3.36087400 19.84047000 22.00972500
O 1.05174600 12.22180000 2.54821400
H 1.01986000 12.92736300 1.90189700
H 1.47058200 11.48997500 2.09552800
O 7.88928700 4.51381600 -0.67348800
H 8.80783100 4.31023000 -0.49631100
H 7.39130600 3.87114600 -0.16860500
O -11.97804300 -19.65944300 5.96262500
H -11.04059700 -19.54239400 6.11772500
H -12.10230600 -20.60626700 5.89937200
O 3.38038700 -1.19162900 25.07980800
H 4.07010600 -1.37830800 24.44262700
H 2.56086100 -1.33926900 24.60811200
O 9.18106700 -9.26655000 -21.56626300
H 9.91824500 -9.82929400 -21.32867200
H 8.64075200 -9.22004700 -20.77771100
O -23.29455900 10.15459200 14.80110200
H -24.08088400 10.56429900 14.44000000
H -23.41870700 10.17375700 15.74985700
O -16.46377700 -18.32420600 -1.78188700
H -16.99673900 -17.68164900 -1.31323600
H -16.46628600 -19.10201400 -1.22428000
O -1.46979000 -23.15455900 -11.76365400
H -0.75132000 -23.66211800 -11.38583500
H -1.94852900 -22.80555700 -11.01204000
O -4.06051300 1.64434300 -22.43193500
H -3.54606400 1.07725800 -23.00666700
H -4.89189800 1.18592800 -22.31121800
O -27.91403000 -2.59505100 -1.60804200
H -27.05191500 -2.90925200 -1.33491500
H -27.74789900 -1.75358300 -2.03260000
O 9.21837500 23.81030800 5.16500700
H 8.84205100 24.62084000 5.50848900
H 9.96748300 23.62559700 5.73125400
O -5.67109200 -17.85440700 -3.86511900
H -5.78495300 -17.71791900 -4.80584700
H -5.54269000 -18.79753600 -3.76543100
O -0.68506100 11.65175900 1.32538900
H -0.47856300 10.72095700 1.41214600
H -1.17205800 11.87245500 2.11914200
O 1.00448200 -12.34977200 -3.12983900
H 1.22440400 -11.78356800 -2.38983200
H 0.53706900 -13.09067500 -2.74447500
O -2.20814300 -1.94991600 4.13357900
H -2.24262000 -2.21742500 5.05217100
H -1.72227100 -1.12538900 4.13379100
O -1.45796800 17.91773500 -2.79204200
H -1.44357900 18.49297300 -3.55719300
H -1.30120200 17.03978200 -3.13923000
O -13.86976500 -17.00635700 -20.12246100
H -13.10561800 -17.00175700 -20.69919400
H -13.86349500 -17.86987300 -19.70988800
O -18.90291800 -15.84829700 -1.73643300
H -19.40744700 -16.64721600 -1.58234900
H -18.21000800 -15.86177900 -1.07642600
O -17.56462400 11.29348700 9.32966900
H -18.19346300 11.05959200 10.01261700
H -16.73292300 11.41071100 9.78841500
O -2.53360800 7.74144600 6.38577800
H -2.78448800 7.29813400 7.19639200
H -1.65436800 8.08127500 6.55121900
O -4.85932100 2.50749800 3.04453400
H -5.59369000 1.89328000 3.04342200
H -4.36009800 2.29525100 3.83297800
O -20.13440700 -18.26976200 -12.30545900
H -20.55063800 -17.64393000 -12.89845800
H -19.54362300 -18.78019100 -12.85895200
O 4.71886300 4.01261100 27.44208900
H 4.81071900 4.72043600 28.08013900
H 4.67412600 3.21220000 27.96483100
O -2.63355100 -7.66076600 -23.72804600
H -1.81192000 -7.53311000 -24.20258700
H -2.37304400 -7.96850600 -22.86009000
O -25.26340700 -5.06045900 -0.78195100
H -24.60209800 -5.28306800 -0.12645300
H -25.28446700 -4.10378300 -0.79756100
O 4.72446700 3.76758900 10.84877700
H 4.76583800 3.40589000 11.73422800
H 4.59499400 3.01054500 10.27777900
O 17.77821900 -18.25666700 9.81516300
H 17.21842200 -19.02937400 9.73697800
H 17.36762000 -17.72098100 10.49366500
O -19.22913500 21.21657400 5.65670100
H -18.29815900 21.31260700 5.85825400
H -19.68075600 21.74510300 6.31443400
O -10.38817400 5.43526900 -7.30790200
H -10.54531800 4.86197300 -6.55743600
H -9.58454200 5.90883500 -7.09382900
O 14.87766400 17.14679200 19.61261700
H 14.94162400 16.25528300 19.26956900
H 15.15026100 17.71075700 18.88904900
O -25.84729400 -12.30711400 5.16714600
H -25.45896000 -13.03364500 5.65490600
H -26.79268200 -12.42521900 5.25775200
O 6.80655900 4.26160600 2.10543900
H 7.04874300 4.70432400 2.91901800
H 6.14449500 3.61934200 2.36055700
O -2.39950500 7.82386000 -5.72428100
H -2.13340300 6.90637400 -5.78729800
H -3.05821600 7.84359500 -5.03028800
O -1.21310400 29.49094500 5.36919300
H -0.36770900 29.42901700 5.81420200
H -1.02572300 29.29012200 4.45241800
O 24.00386100 -17.12569200 -5.52586000
H 23.68741800 -16.80567600 -6.37085400
H 24.56259300 -16.42538300 -5.18925600
O 17.89565600 -8.54792400 5.64336900
H 18.61385100 -8.64251700 5.01742200
H 17.64895700 -9.44327900 5.87444500
O 8.50580800 20.66367400 15.67693300
H 7.57159100 20.70244000 15.47126800
H 8.69875900 21.49495900 16.11012200
O -20.22559300 21.98266100 -2.77259800
H -20.13663000 21.04994100 -2.57592400
H -19.98793100 22.06484900 -3.69600400
O 10.66350500 19.20130800 4.14662500
H 11.15073200 19.03821300 4.95444400
H 10.86847900 18.45821000 3.57943200
O -4.52143300 15.28896000 25.39464400
H -3.90443700 15.95979800 25.10163900
H -5.37516300 15.58158700 25.07616000
O -11.45057400 -18.81352500 -17.19672600
H -12.38847700 -18.80878500 -17.38875900
H -11.22856400 -17.89882800 -17.02364700
O 10.48458700 -13.45053400 -23.97461700
H 11.40662500 -13.56669800 -24.20464800
H 10.35481000 -12.50288200 -23.94252500
O 1.20452900 -21.72492400 -17.15162900
H 0.98172000 -21.98522700 -16.25767100
H 1.16750300 -20.76861300 -17.14765100
O -4.80724300 -17.90883500 -23.00805900
H -4.40508900 -17.66768500 -23.84273300
H -4.60069600 -18.83612600 -22.89235800
O 1.54087800 17.75515200 2.12713200
H 1.73706500 18.69074700 2.17942000
H 2.37294400 17.31725500 2.30553800
O -6.77766900 -0.31283900 0.30892200
H -7.06321600 -0.14321500 -0.58899400
H -6.77918500 0.54394600 0.73534200
O -3.76425800 -11.95006300 2.49647400
H -3.60991600 -11.77906900 1.56722600
H -3.14939000 -12.64674300 2.72558200
O 2.93180200 24.52463600 -12.55405900
H 2.79973000 24.11130300 -11.70066900
H 2.10059000 24.95584000 -12.75171100
O 18.40675900 21.06911300 9.69439900
H 17.95501200 21.86064400 9.98759800
H 18.17000200 20.97616900 8.77178000
O -21.77905600 14.41439000 -14.73765200
H -21.68508100 15.15842400 -14.14255300
H -20.88574300 14.11006100 -14.89669000
O -0.50962500 25.04650000 -10.37156200
H -0.46440700 24.25503900 -9.83480600
H -0.00271400 24.84225200 -11.15720900
O 13.78852800 -13.95247300 -0.65236600
H 13.87599300 -13.03495800 -0.39337200
H 14.59471100 -14.15372900 -1.12721500
O -6.88644500 -17.29964400 23.52226300
H -6.16847200 -16.80618000 23.91921300
H -6.48204700 -17.79678700 22.81146900
O 12.45288700 24.58713000 11.66855300
H 11.71403100 24.75059000 12.25501200
H 13.07968500 24.08889100 12.19276600
O 23.17521600 1.66217500 15.29631900
H 23.22799000 1.83628700 16.23624600
H 23.23924200 0.71060800 15.21671200
O 6.99241300 4.03710700 9.22055200
H 6.50260300 4.85379300 9.31890700
H 6.71702800 3.49278500 9.95797600
O 9.68094500 -0.66421700 6.70706100
H 9.47075500 -1.57088800 6.93140500
H 9.25789600 -0.13697800 7.38453100
O 9.96226100 -12.48617100 19.13402600
H 10.69979900 -12.00042400 18.76436400
H 9.23634500 -12.33203800 18.52970400
O -8.41111400 -11.30244400 -19.51288600
H -9.03756800 -11.72537500 -20.10046300
H -7.57755200 -11.74105600 -19.68232800
O -1.64574500 -0.59296600 -3.42829900
H -1.97654300 -0.84890400 -4.28947900
H -2.35896800 -0.78854300 -2.82086200
O 7.56887200 -26.55798800 -8.12739100
H 8.08804800 -27.12082000 -7.55272700
H 7.31417600 -25.81429000 -7.58153500
O -3.93422700 13.91611300 -7.63135600
H -4.35209500 13.94886500 -6.77061400
H -3.03731900 14.21511600 -7.48279700
O 5.61224100 -3.81103400 6.90842300
H 5.14603400 -4.20391900 7.64656500
H 5.17122800 -4.14854300 6.12899200
O -0.86717500 -9.23448100 -28.18773100
H -0.09446200 -9.77150600 -28.36402700
H -0.77930800 -8.47676000 -28.76570600
O 9.21453600 24.57863100 -9.22559500
H 9.23801600 24.43183400 -8.27983500
H 8.28432600 24.61856100 -9.44702800
O 14.32442200 -4.22282700 21.75126400
H 14.63975900 -3.34681600 21.52826200
H 13.43677500 -4.08947500 22.08325400
O -2.49518800 23.49128300 15.83015200
H -2.76231100 24.28429200 15.36502300
H -2.21064200 22.88640100 15.14526500
O -5.29312300 15.14598300 7.71605400
H -4.43593100 14.73010300 7.81001200
H -5.19546300 15.75146600 6.98136300
O 8.25653600 -14.47812700 10.09863800
H 7.34617800 -14.19139500 10.17343700
H 8.74206700 -13.92260000 10.70820000
O -5.27898900 -22.66454400 -5.63205100
H -6.15840100 -22.36067800 -5.85757500
H -5.20787500 -23.53293800 -6.02797000
O 23.69088700 -18.25133100 -0.45818300
H 24.07511000 -17.89731700 0.34406900
H 22.80368000 -17.89360600 -0.48670200
O 1.70490900 14.01533800 25.94442400
H 1.35982100 14.90641000 26.00331200
H 1.36989200 13.56813500 26.72139800
O 21.74526200 12.69773800 13.12064600
H 21.77318400 13.43428200 13.73161600
H 21.00484100 12.16445200 13.40926500
O -8.41336100 11.13679000 -5.95839300
H -7.70601800 11.15681700 -5.31354600
H -9.17683200 11.48673900 -5.49952000
O 0.27226700 8.49935500 -0.58447100
H -0.28852100 8.92648700 0.06332400
H 0.63541700 7.73725500 -0.13364500
O -12.46759600 15.24164900 8.37412500
H -11.82665100 15.21687400 9.08485600
H -11.95144400 15.37760100 7.57975700
O -3.92738200 -11.78935200 -13.47598500
H -3.11943400 -11.50201600 -13.90168400
H -4.20244300 -11.04617300 -12.93938100
O 8.68822700 23.42436000 10.19194000
H 7.97500000 22.91871600 9.80182000
H 9.45094700 23.24026100 9.64395900
O 11.24596200 0.18398000 -0.16108900
H 12.18168300 0.35527000 -0.26901400
H 11.05449200 0.41774900 0.74699000
O 12.49048900 -21.05157100 17.34075500
H 12.72215400 -20.37338200 17.97554100
H 11.61611100 -21.34339400 17.59808400
O -8.14550400 -3.73394300 23.38590600
H -8.30361200 -4.67118100 23.27123400
H -7.80991300 -3.64669000 24.27791600
O -18.77620400 13.69310300 1.54828600
H -19.28811100 13.21724100 2.20255500
H -18.60701400 14.54931100 1.94096900
O -19.46584600 16.79806100 3.74384600
H -18.84436300 16.36184400 3.16072100
H -20.20356500 17.03916500 3.18388400
O -12.36137100 -15.87702800 -18.38301200
H -12.40571400 -15.41713600 -19.22152000
H -12.28368000 -16.80296900 -18.61217300
O -9.13497600 4.06446400 2.11460500
H -9.82064000 4.17265400 2.77394000
H -8.40351100 3.66122500 2.58180500
O -12.04274900 -20.63624400 -11.37908600
H -12.18883100 -21.35908500 -11.98959700
H -12.48676000 -19.88560800 -11.77318700
O -7.68923700 -4.18414500 -6.39700000
H -7.70555200 -4.20708400 -5.44004200
H -6.96797000 -4.76165800 -6.64633700
O -20.35201700 15.48372500 9.46446400
H -19.56289800 15.01626600 9.18998900
H -21.01674700 15.24888300 8.81723900
O -24.98995900 -0.71001900 2.11362700
H -24.12896200 -0.93102200 1.75809300
H -25.18404400 -1.40485100 2.74248000
O -20.78356400 -8.91983600 15.21576200
H -21.37201400 -9.56401100 14.82164700
H -20.08002300 -8.80385500 14.57740700
O 24.11523100 -1.60034800 -13.50746100
H 24.11074600 -1.46789300 -12.55930600
H 25.02155200 -1.81993600 -13.72258900
O -13.00318500 -22.76790800 5.96392600
H -13.11087100 -22.89647400 5.02135700
H -13.66757200 -22.12199300 6.20330100
O 1.10238100 16.91179800 20.54642500
H 1.41601600 17.26589300 19.71407200
H 1.88357200 16.56805100 20.97943300
O 20.92780000 -5.25157500 -17.31073100
H 20.70257700 -4.60723400 -17.98204400
H 21.42920800 -5.92417100 -17.77129800
O 3.03525800 -21.83597700 14.23991200
H 3.59678300 -21.75722100 13.46851700
H 2.98567600 -20.95128300 14.60154000
O -0.71188100 -19.34358800 3.20350000
H -1.29346400 -20.04617500 3.49452400
H 0.08119600 -19.44467500 3.72954900
O 17.37283400 -24.34143500 -2.37066400
H 17.82552400 -23.93053100 -3.10740700
H 17.85411900 -24.05639900 -1.59411000
O -14.12096900 22.97674800 -12.98032800
H -13.78034300 23.61293500 -12.35120000
H -14.97502500 22.71878600 -12.63397400
O -8.23307800 16.88187600 -5.33995100
H -7.43778400 17.13481500 -5.80908900
H -8.15999200 17.30289300 -4.48361000
O -24.35168000 17.45193300 -1.57607100
H -24.01633500 17.95943100 -0.83678000
H -23.57385500 17.09619900 -2.00544200
O -6.90018400 24.30223700 2.03760200
H -6.38197000 24.90819000 1.50766100
H -6.72078300 23.43668600 1.67078800
O -2.73562500 -16.25147400 13.02204000
H -1.84309000 -16.51839700 13.24271100
H -2.74038700 -15.29932000 13.11846100
O -9.77452900 15.51489800 6.72639900
H -10.02206200 15.74101800 5.82965000
H -9.19150000 14.76091600 6.63977100
O -2.40619600 8.43937700 12.07769500
H -2.52842400 8.65695100 11.15342000
H -1.47735700 8.59483400 12.24801100
O 19.87145300 -22.22048100 3.37617700
H 19.43042800 -22.47053900 4.18829100
H 20.52636200 -21.57396700 3.63891400
O -29.47891000 3.39149600 4.41529400
H -29.27465300 3.45436900 3.48208100
H -29.31059100 4.26624000 4.76516400
O -20.87511000 -5.45400000 17.03536000
H -20.34231500 -4.73314500 17.37160300
H -21.31215700 -5.81877000 17.80467800
O -3.91090100 -7.91465500 23.03893000
H -3.51543700 -8.04414200 22.17672200
H -4.56946600 -7.23242300 22.90943300
O 2.49704700 -20.77117600 -11.97928400
H 2.82434600 -21.29227400 -11.24587100
H 1.76326000 -20.27230200 -11.62067900
O 25.09709100 -7.77803700 11.45043100
H 24.65461200 -7.47057700 10.65907600
H 25.93833600 -8.11903900 11.14721300
O -3.01483300 -10.56287400 -6.72445400
H -2.94620500 -9.74385000 -7.21542500
H -3.74869300 -10.43121300 -6.12442700
O 1.32742700 19.62709500 -9.31262300
H 0.92769600 20.26869200 -8.72514500
H 2.26777400 19.79800400 -9.26307900
O -11.81882000 -17.86284200 -2.43962900
H -11.61636900 -17.17926900 -3.07861400
H -11.66209800 -18.68687700 -2.90041300
O -25.79425200 3.67517800 14.87279800
H -25.27770200 3.63270600 14.06785400
H -25.36828500 3.06345100 15.47301400
O -23.93230500 18.04918100 1.35856500
H -24.11344100 17.71190900 2.23606100
H -23.33519300 18.78467700 1.49428700
O 20.58630600 20.00795400 -6.45281600
H 20.72722400 20.42124200 -7.30481200
H 21.05652700 20.56048500 -5.82870200
O 21.20817300 20.31156500 -0.67457800
H 21.17164100 21.23510100 -0.92419400
H 20.79696200 19.84238700 -1.40031500
O 4.79068000 -8.12253100 -18.88015400
H 4.22942200 -8.82518300 -19.20853000
H 5.06392600 -7.63906300 -19.65958400
O -7.48816800 -12.23053900 -15.29710400
H -6.84166300 -12.79543100 -15.72076700
H -7.84406800 -11.68956800 -16.00180400
O -10.52091000 11.18101500 -8.10821200
H -10.60318300 11.25330800 -7.15712400
H -11.13756500 10.49329400 -8.35860100
O -4.67284100 -26.66304900 -3.34664600
H -3.78026800 -26.99218200 -3.23918900
H -5.21469300 -27.44530800 -3.44854800
O 16.53875000 -17.57558900 -16.27384100
H 15.92970200 -18.31423100 -16.26829400
H 17.24615800 -17.84226100 -16.86067700
O -5.59704600 -16.42248600 -20.44932300
H -5.53535600 -15.91918100 -19.63726400
H -6.46906700 -16.81638900 -20.43094600
O 14.01328500 -7.91362600 3.78490000
H 13.77357800 -7.62181900 4.66464500
H 13.19961100 -7.87920400 3.28224000
O 9.34747500 -15.11386200 13.65562200
H 8.45254500 -14.81257800 13.49785500
H 9.27792500 -16.06489300 13.73698900
O 12.44494000 -24.46658600 -11.00951700
H 11.84116000 -25.08803200 -11.41672200
H 13.13018400 -24.32320600 -11.66205100
O -6.86483500 24.81782200 9.53353800
H -7.44820600 25.19696600 10.19117800
H -6.40269000 24.11409900 9.98863300
O 12.08563400 24.00476200 -13.33097100
H 11.50283400 24.55926900 -12.81190700
H 12.73729100 23.68041500 -12.70963400
O -18.26645000 3.40888200 11.16842700
H -18.31844000 4.30442600 11.50287900
H -17.52265800 3.01661900 11.62539500
O -23.02846100 13.49582100 -9.70331600
H -23.82032600 13.19918400 -10.15222400
H -22.53378600 13.97754100 -10.36600700
O -12.91429600 -24.63907400 -9.67187800
H -13.77158700 -24.94810700 -9.37843000
H -12.40385800 -24.52651400 -8.87019200
O 10.08179800 -15.10232700 20.24192800
H 10.83919600 -14.84556000 20.76821800
H 9.41428700 -15.35975900 20.87759700
O 13.41695600 20.17119200 -16.44076400
H 13.53298500 21.01117100 -15.99631400
H 14.01252400 20.20266400 -17.18924700
O 12.36597100 -18.54362000 19.78586900
H 12.27653100 -17.66455700 19.41734500
H 11.66406300 -19.05394100 19.38236600
O 17.32593300 -17.83036700 -4.36295500
H 17.50933600 -18.56587100 -4.94772900
H 16.76449300 -17.24452500 -4.87038900
O 7.41781100 14.04977100 16.83701800
H 7.97553700 14.62587100 17.36009800
H 8.02459300 13.48481700 16.35893900
O 11.98436700 21.77782200 9.14399000
H 12.34541300 21.24269200 9.85098700
H 11.66356700 22.57100500 9.57278300
O -12.96405600 16.11398700 13.92424000
H -12.56224000 15.65539700 14.66234600
H -13.32022400 16.91998400 14.29764300
O -3.36061500 -16.76426200 5.33310700
H -3.61889700 -16.00281900 5.85277700
H -3.08115500 -17.41807200 5.97369500
O -15.33068200 -1.93470000 25.03823600
H -15.64729800 -1.20335900 25.56876100
H -15.38779700 -2.69921900 25.61109400
O 25.55492800 7.05880600 8.71777900
H 25.50333700 6.14044100 8.98330800
H 26.09864700 7.47905400 9.38387100
O 10.89674600 -23.61929300 2.09490400
H 11.25491600 -22.77678800 2.37501200
H 10.35446000 -23.91345800 2.82655300
O -5.98279800 -27.83709300 -5.47209500
H -5.81700200 -28.44093600 -6.19628200
H -5.38086200 -27.10702700 -5.61559600
O 0.80040300 14.01787800 15.81299200
H 1.24882900 14.10668400 14.97180900
H 0.54421600 13.09702400 15.86109900
O -25.22184400 5.56483100 12.74526700
H -25.21623900 5.39660200 11.80280800
H -26.14749800 5.62682300 12.98029900
O 15.94338700 21.70953500 5.50500800
H 16.09313200 22.21089100 4.70327200
H 16.81710600 21.47500200 5.81729900
O -7.62723500 18.55411400 10.48913600
H -8.34885000 18.28561200 9.92015500
H -8.04770200 18.89254900 11.27944300
O 28.91239100 0.54662900 4.96368600
H 28.98380900 0.89702400 5.85176500
H 28.78634200 1.31297300 4.40445000
O 1.31550500 -22.08049900 -19.31908900
H 2.23179800 -22.35792300 -19.32149200
H 1.04103300 -22.12437100 -20.23487100
O -5.71313500 14.63136100 1.93336700
H -5.65933800 14.22513400 1.06812300
H -4.94390300 14.31237600 2.40501100
O 5.64370900 -24.86192500 14.78403700
H 6.45818200 -25.35409000 14.67930100
H 5.83503100 -23.99005300 14.43885300
O 10.25256500 23.00581300 11.67896200
H 10.51415700 22.93864800 12.59745000
H 10.39705300 22.13224300 11.31576100
O 1.75718000 -20.34529900 -6.09077400
H 2.02956800 -20.92115600 -6.80544600
H 1.32885400 -20.92148900 -5.45795600
O -0.76852000 -10.96230800 1.49815800
H -1.57971300 -10.93322700 2.00578300
H -0.07046300 -11.02317400 2.15002400
O 1.64245100 5.22292500 11.46983000
H 1.56061900 5.46750300 12.39181000
H 0.98223300 5.74585100 11.01532100
O -20.15569200 19.89641800 9.80112800
H -20.78354400 19.61241000 9.13652000
H -19.67065900 20.61356200 9.39325100
O -10.66222100 -13.51784300 -8.16895900
H -10.11015400 -14.24306900 -8.46192800
H -11.42296400 -13.53551200 -8.74936800
O 9.86433800 21.43247100 -12.36303300
H 10.00103300 20.62215500 -11.87184700
H 9.51133500 21.15353300 -13.20772200
O 17.25195500 -23.23540900 7.75367500
H 17.88034300 -23.03240600 7.06050800
H 16.63882200 -23.85493800 7.35849300
O 14.43137500 -20.12130100 -1.16482400
H 15.20178200 -20.43724700 -1.63727800
H 14.77612800 -19.73036200 -0.36218500
O 8.98584000 16.49869800 16.79931300
H 9.17708300 16.49591900 15.86124000
H 9.69646700 17.00266400 17.19547400
O 1.69764000 11.01492500 22.01756200
H 1.86647800 10.07911400 22.12852500
H 2.20974800 11.44210200 22.70399000
O -21.47102100 -14.05294000 11.98644500
H -20.80786500 -14.66264700 11.66234000
H -21.52649500 -14.22403300 12.92642800
O -1.47598600 -3.87571800 6.69665500
H -1.73756600 -4.20808800 5.83777900
H -0.88339100 -3.14764000 6.51050800
O 0.78422500 16.44927000 5.94130200
H -0.16203200 16.31741800 5.87986300
H 0.90097500 17.07805000 6.65328700
O 6.68652800 -24.08671400 16.55914500
H 7.42574300 -23.61628400 16.94491800
H 5.94524200 -23.89744300 17.13411300
O 7.03686500 24.54005400 -1.46326000
H 6.74865600 24.04192400 -0.69816900
H 7.98863600 24.44106900 -1.47910500
O 7.37469200 -13.98749400 -0.84535800
H 6.98128700 -13.26905900 -0.34973200
H 7.36566700 -14.73485400 -0.24762100
O -15.17898400 -24.18210100 -4.36546300
H -15.82507000 -23.60465700 -3.95841000
H -15.48175800 -24.29664200 -5.26608800
O -0.94864000 -10.38493500 6.35154100
H -0.40028800 -9.99439000 7.03223600
H -0.76285400 -9.87690800 5.56204100
O 11.56554600 -10.29365500 -8.84110600
H 11.70528400 -9.64759500 -9.53366800
H 11.54153900 -11.13793100 -9.29115000
O 13.66739800 3.54972900 -25.94881900
H 13.41061800 2.96023300 -26.65812900
H 13.66320100 4.42352000 -26.33919000
O -9.20094100 -22.69436200 -0.33046900
H -8.93339300 -22.87798300 -1.23117000
H -9.83403200 -23.37917300 -0.11564900
O 0.43450500 -14.45838100 -20.92819100
H 0.92436900 -13.67622900 -21.18281400
H 0.92486500 -15.19034000 -21.30195400
O -1.93593400 -18.25134300 -14.90933300
H -1.97896400 -18.89535000 -14.20225000
H -2.77568900 -17.79331800 -14.87862600
O -13.44094600 10.59027200 1.49377800
H -14.02531000 10.06196800 2.03781400
H -13.79005900 11.47978600 1.54671400
O -1.20183600 14.45661300 -21.36637200
H -1.73900300 13.97312000 -21.99426400
H -0.36956900 13.98499800 -21.33757600
O -3.58192000 11.45729800 -1.91759800
H -3.30595100 11.05643600 -2.74204500
H -4.52263000 11.60333100 -2.01587100
O -2.91725400 18.85031500 -6.43978300
H -2.21908900 18.67887200 -5.80753700
H -3.56643500 19.36333600 -5.95885700
O -7.08640600 -12.25222400 6.35056300
H -7.89258200 -12.69633900 6.61401100
H -6.64744600 -12.02842500 7.17101700
O 14.88427600 -15.97342700 4.25787500
H 14.39298000 -16.79477000 4.28207900
H 15.34395200 -15.98441800 3.41853300
O 2.86492600 -9.15372500 28.42543200
H 2.31663300 -8.67331800 27.80483000
H 3.59967300 -9.47972800 27.90602300
O -7.38779000 28.65871200 4.58712200
H -7.34227100 27.73721400 4.33152000
H -6.50176800 28.88053300 4.87291400
O 6.98907600 -7.99648800 -9.28893300
H 6.27829100 -8.37451200 -9.80705000
H 7.55293200 -7.55718100 -9.92532300
O 7.85521400 19.50565600 13.55446800
H 7.95989500 20.42926300 13.32522100
H 8.57096500 19.05631900 13.10534300
O 0.83282900 1.27635000 23.11686600
H 0.09976900 0.94165500 23.63374600
H 1.57348700 1.29801800 23.72256600
O 23.90987200 2.74265400 9.17447400
H 24.62815300 2.83857400 9.80012000
H 23.11576000 2.91123000 9.68131200
O 1.06541400 -16.63855600 17.48769300
H 0.97202500 -17.58979900 17.43312600
H 1.30143500 -16.46471000 18.39873000
O 10.06960200 -9.90509900 -1.75934600
H 9.91964000 -10.56297200 -2.43852000
H 10.96253200 -10.06374800 -1.45369400
O 5.96318400 11.03763300 12.33448100
H 6.44629900 10.70689600 11.57700200
H 5.08321000 10.67194900 12.24595300
O -4.94512800 -10.78037700 4.99610900
H -5.02072000 -11.27790500 5.81055000
H -4.61209800 -9.92276800 5.25976600
O -6.30410500 26.03127200 -5.73200400
H -6.04940200 25.16146400 -6.04042400
H -7.12078400 25.89459300 -5.25214000
O -4.89548300 -9.14730800 28.14137600
H -5.60272500 -9.07956200 27.49967500
H -4.10868000 -8.86869600 27.67315000
O -3.18840300 15.25197900 -0.00472100
H -3.57128700 14.83446000 0.76705600
H -2.39068200 15.67491100 0.31258800
O 4.03589100 -6.40204900 26.53923400
H 3.36614800 -6.92403100 26.98143300
H 4.11123200 -6.78479000 25.66530600
O 0.97953500 14.01043800 -10.03181500
H 1.60902700 14.64948500 -10.36636100
H 0.73517400 14.33392600 -9.16488900
O 2.87092300 8.26070300 -0.35572100
H 3.75906800 8.59765000 -0.23644400
H 2.77801300 7.56976000 0.29993200
O -3.77727100 -3.88806500 0.24250400
H -4.42425100 -4.54559100 -0.01369800
H -4.09779700 -3.53543800 1.07246400
O 26.59934800 1.02776400 -9.63585400
H 27.11100600 1.09753400 -8.82969000
H 25.89557500 1.66901700 -9.53881900
O 22.55299100 -5.09957400 3.79890700
H 22.83585500 -6.01298700 3.75173200
H 22.55949700 -4.88613800 4.73181600
O -5.24082000 21.71444600 -2.01893400
H -5.41704900 22.18321100 -2.83487800
H -4.30017600 21.53859700 -2.03250800
O 0.93407500 -27.69750500 -5.80885300
H 1.62859200 -27.68984800 -6.46775300
H 0.32428700 -27.01303700 -6.08376900
O -4.10702700 13.47676700 16.94395600
H -4.86649300 13.85160600 17.39035200
H -4.47098100 12.97565200 16.21434000
O 23.66591700 -5.79461200 -17.48644600
H 23.29111200 -5.80644000 -16.60557000
H 23.70932700 -4.86873400 -17.72473500
O -29.51702200 1.34579200 0.82309500
H -29.95201000 1.71111200 0.05245300
H -28.78683800 0.83373100 0.47590100
O 3.36213700 -16.00622300 -13.64725500
H 3.95698400 -15.25656900 -13.67440200
H 3.60142700 -16.53984500 -14.40482000
O -12.39977700 -3.10396800 -0.11358900
H -13.04162100 -3.41758200 0.52378400
H -11.57958900 -3.03425200 0.37462100
O 6.21410500 -16.60628600 -13.95642800
H 6.97637400 -17.06418300 -13.60169000
H 5.50749200 -16.78403100 -13.33592700
O 9.17230800 10.92877000 18.95997600
H 8.44315000 10.78513900 19.56351600
H 9.95705600 10.71472100 19.46422800
O -27.51875900 -5.05751900 -1.41052500
H -27.46725100 -5.71336600 -0.71498800
H -28.41488300 -4.72393200 -1.37053500
O 8.96820300 3.00016000 -24.51674100
H 9.38524600 2.26714500 -24.96987000
H 8.03369200 2.79376800 -24.51964800
O 5.38741900 -14.00753800 -25.09339300
H 6.06406600 -14.13374900 -25.75881100
H 4.55838600 -14.09745300 -25.56300700
O -4.62031800 -22.89706600 8.28223400
H -4.98337200 -22.51403800 7.48345800
H -5.29085900 -22.75766500 8.95070900
O 1.54159800 -18.37808700 -9.23400800
H 1.66851500 -17.86733000 -10.03374600
H 0.59249400 -18.44603000 -9.13151800
O -7.54119000 -28.23134500 2.38872300
H -7.61959300 -27.44491400 1.84840700
H -7.62081600 -28.96196500 1.77572100
O 13.85346900 -24.93298800 8.34748000
H 13.60445200 -25.08520100 9.25928300
H 13.49849700 -24.07010900 8.13452000
O -3.33450400 16.28291200 -17.80826600
H -3.09981600 16.90354900 -18.49840600
H -3.45525400 15.44667500 -18.25775900
O 10.26148900 26.25379200 7.84077000
H 11.10270600 26.70421100 7.76306200
H 10.05385100 25.96201000 6.95326400
O -2.27739400 18.87871100 -12.21516500
H -2.64902000 19.21410600 -11.39909700
H -1.82842700 18.07017000 -11.96898100
O 8.81379800 27.76562100 7.16938600
H 8.60867600 28.04511700 6.27699200
H 7.99953500 27.88182500 7.65866200
O -12.71811000 7.73268800 -23.88874100
H -12.17708600 8.48208700 -23.63922700
H -13.03916300 7.37281800 -23.06210000
O -19.31645300 20.22914700 -9.34874900
H -19.97387200 20.02090300 -10.01282500
H -19.76029600 20.81529000 -8.73608600
O -4.54116900 5.21467800 24.13674100
H -4.98986800 5.74633200 24.79444500
H -3.66861800 5.05864300 24.49761000
O 2.70475400 -0.09205500 -23.76796300
H 2.27840300 0.67535400 -23.38603300
H 3.54720200 -0.15670200 -23.31849800
O -0.28467800 8.17416500 -28.86352900
H -1.18885300 7.86575200 -28.92606300
H -0.19000400 8.48279100 -27.96258300
O -13.78435500 8.28285700 13.41973300
H -13.04380100 7.89975500 12.94922900
H -13.39911200 8.95191200 13.98530300
O -14.46068200 7.17604200 -25.22097200
H -14.42781600 6.50852000 -24.53548300
H -14.88218100 7.93127700 -24.81124600
O 1.54044800 -7.71133200 -0.20185400
H 1.34061000 -6.86747000 0.20376100
H 2.45976800 -7.87531100 0.00761900
O 23.86695800 8.31994600 0.67552800
H 24.48971200 8.54282100 -0.01661700
H 23.97132000 7.37798500 0.80870400
O 10.48193800 -0.75173500 -4.52231100
H 10.06625600 -0.22572800 -3.83887300
H 10.76540600 -1.55214300 -4.08082500
O 25.98159400 -3.73028000 9.18212200
H 25.24359200 -4.19929200 9.57192100
H 26.73563400 -3.96018800 9.72478400
O -14.47557500 -16.60950500 -6.12082000
H -14.51114800 -17.29777400 -5.45630400
H -13.73391500 -16.84231100 -6.67908400
O 24.87948200 0.34082500 -8.10930900
H 25.54962000 -0.33198100 -8.23099900
H 24.20803600 -0.07349100 -7.56762700
O 2.88311000 27.34402200 11.93504000
H 1.93127700 27.43930900 11.97371100
H 3.11895100 26.88437300 12.74065700
O -8.92568500 -18.78435400 5.29071900
H -8.01782600 -19.00413200 5.50060300
H -8.92524100 -18.60052100 4.35150500
O 19.40460700 -8.06326700 -17.16954600
H 19.83168500 -7.22372100 -16.99828800
H 18.76081900 -8.16127700 -16.46822700
O 8.17098100 -12.84234400 -11.51225400
H 8.58407800 -12.11779600 -11.04220800
H 8.48421900 -13.63298200 -11.07329000
O 8.04272700 6.54747400 5.61067400
H 8.07434700 7.12912500 6.37044000
H 8.83713200 6.74450000 5.11467200
O -10.93349700 24.86402100 4.07021300
H -10.48395000 24.74336500 4.90682100
H -11.75052100 24.37289500 4.15497000
O 15.60709800 -12.34176600 10.84493200
H 14.85713800 -11.76459500 10.98983000
H 16.28602400 -11.77760800 10.47520200
O 1.29165800 -25.47197100 10.89455300
H 1.58381500 -24.65694700 11.30313800
H 0.36210200 -25.53881600 11.11221000
O -1.47462000 -7.75238400 -8.72804900
H -0.59813300 -7.79067900 -8.34481700
H -1.57842500 -6.84653300 -9.01886800
O -4.81667300 -15.97712200 -13.38248300
H -4.05721000 -16.19623000 -13.92264000
H -5.57574900 -16.17030800 -13.93239200
O -24.82675800 5.75043200 7.96445700
H -25.22560200 6.15016400 7.19134700
H -24.09705700 5.23158000 7.62645500
O -23.58596300 -2.34402300 13.03759200
H -24.25305500 -2.01115500 12.43696800
H -22.77708900 -2.35796400 12.52627600
O -2.62060300 -14.18420000 20.90012400
H -3.00705700 -14.21293500 21.77556100
H -2.27025700 -13.29786700 20.81300800
O 7.08571400 -16.50655400 -8.18572500
H 6.67962500 -17.28540300 -8.56657600
H 7.15563100 -15.88453900 -8.90969100
O -11.13593300 13.02761600 18.14845400
H -10.68666000 13.21177600 17.32334700
H -10.60324400 13.45222700 18.82066300
O -22.61649800 -3.64541800 16.34911200
H -22.51762800 -2.73606100 16.06652200
H -23.42148400 -3.65785400 16.86656700
O 7.28027900 21.61983700 -0.58242200
H 6.65357300 21.75227600 -1.29394200
H 7.99406800 22.23090800 -0.76411900
O 18.46814400 -3.03760400 -19.44455700
H 18.79998700 -3.12701800 -18.55099800
H 18.15709500 -3.91103200 -19.68181200
O -7.84904200 -25.36826000 5.43557500
H -7.43150900 -26.22702000 5.50455900
H -8.65044200 -25.52194900 4.93552000
O -9.83976000 -2.62021700 25.38439600
H -9.85259600 -2.84927200 24.45491800
H -9.07149600 -2.05952000 25.49072800
O -25.36279600 -3.32897300 14.59704800
H -24.51622900 -3.75113000 14.44984800
H -25.80549700 -3.35937300 13.74910400
O 9.84028300 14.22414300 14.84258500
H 9.10022100 13.75287300 14.45947200
H 10.59490000 13.65088500 14.70899900
O -0.56834000 -11.85232000 -24.56292000
H 0.07392200 -11.48206400 -23.95713700
H -1.37641100 -11.92217600 -24.05492700
O 11.53393000 24.04655000 -10.19811500
H 10.80221400 23.97329400 -10.81113000
H 12.24448600 24.43758200 -10.70617200
O -8.73415300 -27.36771900 -8.07258000
H -8.12908100 -27.50377500 -8.80192100
H -9.56823800 -27.13866400 -8.48215700
O 24.87050100 -3.66683000 -12.53747400
H 24.44862800 -3.46553500 -11.70197200
H 25.11312800 -4.59057100 -12.47622100
O -2.92151300 22.75849200 -4.85234500
H -2.34780500 23.05060700 -4.14376200
H -3.70972200 22.43587100 -4.41581200
O -24.46368800 6.79310700 -2.23215800
H -24.61401000 6.91964600 -3.16914900
H -23.53159100 6.58982200 -2.15607800
O -6.83146200 7.22105400 7.05214100
H -6.41731500 6.80982900 7.81104800
H -6.98994300 8.12694000 7.31703900
O 16.03878700 -20.38100800 -4.75177400
H 15.55247200 -19.55929300 -4.82136600
H 16.06173300 -20.57668500 -3.81523700
O 11.83567900 -10.26596900 -3.47815200
H 11.56697700 -10.16155300 -4.39109200
H 12.11763200 -9.39419500 -3.20169300
O -17.01502300 22.25036900 10.03468400
H -17.89031500 22.03957500 9.70911900
H -17.06047600 22.10479700 10.97949000
O 2.32944400 18.53738800 9.13175400
H 1.76584400 18.63919000 8.36458200
H 3.18177700 18.87720100 8.85977300
O 21.01122300 -2.23257400 -19.38030500
H 20.51423100 -2.58924500 -20.11674700
H 21.46374100 -1.46721400 -19.73437900
O 25.65515500 8.22043700 -8.97117300
H 25.99215800 8.02572800 -9.84586100
H 24.84611900 7.71428900 -8.89911400
O 3.11349200 -9.24790100 21.76056300
H 3.82299200 -9.88631900 21.68576900
H 2.93809900 -8.96623000 20.86289100
O -20.79856000 1.81905300 15.82413100
H -21.63938700 1.46746100 15.53095100
H -20.50597200 2.38756900 15.11202200
O 25.82177600 -10.18731700 6.39494800
H 24.87878000 -10.07774500 6.27119700
H 26.00212600 -9.82148600 7.26071900
O 3.97199700 25.75600100 -14.15766600
H 3.97039100 24.85041500 -14.46827000
H 3.12821700 26.11383900 -14.43317300
O 9.72795100 -17.87225100 -13.65249000
H 9.12031100 -17.30607900 -13.17627000
H 10.31235300 -17.27328400 -14.11685000
O -3.41243000 22.75542700 -16.27713600
H -2.66821600 22.51638000 -15.72435800
H -3.92491900 23.36886100 -15.75085600
O 2.53321000 24.31169600 -0.08258500
H 2.82437900 25.21656200 0.03143300
H 3.22910800 23.77751800 0.29990200
O 12.78940600 -18.86542900 -9.71213100
H 13.54811100 -18.58663600 -9.19909700
H 12.51998300 -18.08679600 -10.19901800
O 25.01523900 -7.22185900 14.17560400
H 25.36743400 -6.38566600 14.48105800
H 25.66962700 -7.55731400 13.56309800
O -28.75738000 8.24775700 0.84463400
H -29.07331600 7.34978200 0.74272000
H -28.74409700 8.39992600 1.78940100
O -7.40728400 12.51935900 2.54382000
H -6.60595100 12.48513300 2.02108100
H -8.09691700 12.20203400 1.96104400
O -0.96712600 -28.69738300 -6.82343300
H -0.15747100 -29.16452900 -7.03030400
H -1.60559400 -29.01335300 -7.46252400
O 2.78868500 4.22125900 -0.76211100
H 2.10667300 4.00758300 -0.12511500
H 3.60168100 4.24027500 -0.25753700
O 6.31186200 -8.65536100 20.27199200
H 5.58969700 -8.48458300 20.87686800
H 7.07009800 -8.82092600 20.83197800
O -1.47755800 -4.25328800 0.82324000
H -1.59177100 -3.55775600 0.17535800
H -0.87988300 -4.87815000 0.41305900
O 16.15672800 -22.07195300 -11.36600900
H 15.83661500 -21.24515200 -11.00477600
H 16.88193300 -22.32702200 -10.79598000
O -3.34166500 -11.00379300 -23.69041700
H -3.57236500 -11.82810200 -24.11920000
H -3.15828100 -11.24030800 -22.78138000
O -22.95421500 15.95259600 3.18197900
H -22.18044800 16.11714700 2.64274900
H -22.86236600 15.04685500 3.47712900
O -0.72443300 10.37652900 15.75291600
H -1.53988000 9.92469800 15.97076200
H -0.17973500 9.71375900 15.32870300
O -7.74544000 24.85797100 -14.60230200
H -7.83484500 24.23602100 -13.87998200
H -6.97934900 25.38688900 -14.38034000
O 13.03814200 -17.00737300 -20.26220200
H 13.70568700 -16.65519800 -20.85120000
H 12.53239400 -17.61815300 -20.79800500
O 6.58256000 -13.68422300 14.34517800
H 6.63816200 -13.12362400 15.11925700
H 6.35357800 -13.09374900 13.62766500
O -17.02680000 5.87595000 16.70643700
H -17.06983600 4.95535900 16.44716700
H -17.03428100 5.86437300 17.66337300
O 17.76236500 14.70740400 17.50576200
H 18.47290800 15.33641100 17.37911100
H 17.26673400 14.72549400 16.68726400
O 25.39541000 9.37862100 -12.92724300
H 25.75609300 8.96627000 -12.14210800
H 24.94838900 10.16375100 -12.61155400
O -18.66403100 11.81914400 6.53673300
H -18.25015200 12.66150300 6.72566600
H -18.43777800 11.25984900 7.27964400
O 25.08250400 4.58047300 5.48599200
H 25.83277500 5.16724700 5.58269400
H 25.20532000 3.90880400 6.15658500
O 8.16187600 9.54640600 14.79569700
H 8.15316400 8.70605700 14.33711200
H 8.02398100 9.32722900 15.71703400
O 22.59121700 14.58386000 -12.44727000
H 23.40566300 14.08243900 -12.40464000
H 21.94164200 14.03947000 -12.00273600
O 13.21073900 20.41841000 -4.00605600
H 13.22213000 19.88573800 -3.21063600
H 12.95172800 19.81647900 -4.70355800
O 5.34412800 -21.09895100 -10.19767300
H 5.21886500 -21.88286400 -10.73279200
H 5.61791000 -21.42523900 -9.34064500
O -9.37998000 4.65122400 -21.91041600
H -9.92948600 4.99187000 -22.61650800
H -8.56205500 5.14413100 -21.97333000
O -4.41907000 4.43448000 4.61523900
H -4.42521300 4.09025100 5.50856500
H -4.49839200 5.38301600 4.71475600
O 0.95630800 -7.31453900 25.18094400
H 1.40482800 -7.14059900 26.00867300
H 1.58134000 -7.06013100 24.50232100
O 8.58022400 -27.11741400 6.03893600
H 8.88045700 -26.47412300 5.39659700
H 8.64084400 -27.96118900 5.59140400
O -16.60187000 -3.89939300 15.07611200
H -16.02493000 -4.44273500 15.61321700
H -16.91657600 -3.21434500 15.66567600
O 0.67264600 -25.17640300 4.32766100
H 0.99974800 -25.61378400 5.11395900
H -0.24734600 -25.43282300 4.26617300
O 27.12252600 7.90556500 -3.49754500
H 26.52698700 7.64279500 -2.79551400
H 27.93806800 8.14081500 -3.05543000
O 28.06778600 -0.98993000 -3.13038900
H 27.42524700 -1.50043300 -3.62343200
H 28.17339600 -0.17869600 -3.62704100
O -10.56713200 -2.46597200 2.32696700
H -10.87696000 -3.12358700 2.94995200
H -11.30263900 -1.86373300 2.21626800
O 10.18235600 -8.14772900 20.75951300
H 9.63512700 -8.41516300 21.49814800
H 10.45436800 -7.25321200 20.96388000
O -16.11229000 18.00880600 -4.73518500
H -15.44837200 17.78219800 -4.08370700
H -16.51777500 18.81111800 -4.40686500
O 0.49683800 -1.95849000 26.23488200
H -0.11741300 -2.27146500 26.89918900
H 1.36182200 -2.05234500 26.63351900
O 18.92184800 -16.23700100 15.60255300
H 18.75287400 -16.67368400 16.43760900
H 19.86761800 -16.30643900 15.47365500
O 19.88779800 -11.21971500 6.70839300
H 20.30741400 -10.39495800 6.46291400
H 18.95484800 -11.08074800 6.54649900
O -10.13818900 4.19885300 22.36934100
H -9.37054300 4.74817100 22.52912600
H -10.55134400 4.09525600 23.22636300
O 2.85839300 18.44603300 -11.71170600
H 2.38560200 19.20763500 -11.37556200
H 2.89795300 17.83471300 -10.97642500
O -15.59777300 12.88607200 -18.06710900
H -15.84799900 12.05304600 -17.66708900
H -16.04341300 12.89792300 -18.91397500
O -9.97310500 14.62465200 -2.74845700
H -9.96324300 13.89865300 -3.37246800
H -10.38247200 15.35037700 -3.21926300
O -28.61027500 5.34992100 -0.04704200
H -28.03572500 5.45048200 -0.80621300
H -29.49523700 5.48071200 -0.38712000
O -0.15637300 12.64430100 8.19586300
H 0.58714000 12.30760100 7.69548000
H -0.37604200 13.47873100 7.78187200
O -19.65084800 20.46400500 0.83475000
H -20.03130900 20.94436900 1.57031900
H -18.84575500 20.07887000 1.18031500
O -6.41222500 10.71426100 21.89785800
H -6.11947700 9.89590000 21.49642800
H -6.54088100 11.31710200 21.16577400
O 7.94363300 -6.66259000 -5.95465700
H 8.50518500 -7.11697500 -5.32636000
H 8.14630600 -7.06062300 -6.80106700
O 4.46987400 -8.34653700 -16.71566000
H 5.14406400 -7.86977700 -16.23117100
H 3.98665400 -8.83647500 -16.05054600
O 8.09525300 -7.34911500 -17.26554200
H 7.45165000 -7.91805800 -16.84288300
H 8.39381700 -6.75727200 -16.57525300
O -1.33552500 23.16249800 7.37234600
H -2.02828400 23.78177000 7.60288900
H -0.90737800 22.94988600 8.20144400
O 5.36769500 15.82332600 5.16824000
H 5.62376100 15.57298300 4.28036600
H 5.18648800 16.76173000 5.11846000
O 13.27337700 -1.75296900 -24.63855900
H 14.03842000 -1.26997300 -24.32553100
H 13.14088000 -2.45017600 -23.99648000
O -0.04373900 -8.12406100 -25.62400100
H -0.19299700 -7.40968500 -26.24363800
H -0.07470400 -8.92113600 -26.15280100
O -19.94680500 16.41840900 -13.66610200
H -20.10191300 16.94576100 -14.44994100
H -19.53128500 15.61733500 -13.98475600
O 1.17440500 3.48138300 22.63462300
H 0.25164500 3.44222600 22.88670100
H 1.40245200 4.41006000 22.67299200
O 8.03133500 -19.36507600 1.70028100
H 8.20095500 -18.79886200 2.45340300
H 8.51456400 -20.17083500 1.88237800
O 9.20205000 -2.53400200 26.11670700
H 9.67281000 -2.18059000 25.36169200
H 9.46265500 -3.45372000 26.16275600
O 6.30729200 6.28665900 27.61592200
H 6.63262200 6.41595300 28.50699200
H 7.09127600 6.15877300 27.08213200
O 25.69029400 5.31352900 2.81513500
H 25.05328100 4.78101600 3.29179700
H 26.40911000 4.71575500 2.61047700
O -6.98208500 -10.49889700 20.17873800
H -7.46348900 -10.39170800 20.99930000
H -6.42484900 -11.26464500 20.31670500
O 17.19059600 -15.58212600 -19.01899100
H 17.86728100 -14.91555100 -18.89925400
H 17.22956400 -16.11950200 -18.22802600
O 17.43257300 -0.74940800 -21.89794100
H 16.88900400 -1.41812000 -21.48090500
H 17.98070800 -0.40176800 -21.19465400
O -11.78117200 24.80108900 12.08583800
H -12.65186700 24.49491100 11.83146100
H -11.63466900 24.43459000 12.95769400
O 0.85540500 -19.28168600 19.42308500
H 1.71702300 -19.62314400 19.66304900
H 0.93445900 -18.33130900 19.50340300
O -7.45219500 5.90209800 26.92361100
H -7.69704500 6.39154500 26.13808400
H -7.84309500 5.03624200 26.80782400
O -20.16825900 5.95945500 2.68160800
H -20.75219100 5.45736500 3.25037000
H -20.53851200 5.86801400 1.80384400
O -25.24408000 13.45152900 -8.40966200
H -25.68519700 12.72579900 -8.85158300
H -24.55117900 13.04187600 -7.89198500
O -4.05537300 -22.55959900 -0.31151700
H -3.35361400 -22.29801100 0.28486300
H -3.64241100 -23.16040600 -0.93152600
O -8.13358500 -14.76843500 -13.41989700
H -7.63529300 -14.93065900 -12.61867900
H -8.39911400 -13.85061900 -13.36488400
O -10.61507900 21.40336800 -8.93521500
H -10.77448200 21.25605900 -9.86766000
H -10.95208600 22.28222500 -8.76214200
O 21.33070500 5.66321000 -14.21469200
H 21.59712300 5.17509900 -13.43537700
H 22.12731400 6.09738800 -14.51935600
O 14.34429200 -24.36371500 -6.69741200
H 14.67544800 -25.23172800 -6.92860600
H 14.55281700 -23.81052400 -7.45001700
O 8.74296000 -2.49141600 -4.64059200
H 7.87635400 -2.83887900 -4.85231100
H 8.59056100 -1.85361100 -3.94352800
O -25.51818200 8.96754900 -4.16345500
H -24.66315200 8.68053700 -4.48456000
H -25.32359300 9.60395700 -3.47567800
O 2.04783200 12.05456900 -3.58248800
H 2.30810000 12.41126800 -2.73302400
H 1.45062500 11.33558900 -3.37674800
O -17.46675400 6.29467000 1.00034800
H -17.94223900 5.57510400 1.41592000
H -16.67202300 6.40083700 1.52288900
O -5.93780300 2.32260200 7.36158500
H -6.67604400 2.86892500 7.09122800
H -5.15924300 2.84313400 7.16458700
O 15.50298200 -1.29124900 -19.25429600
H 15.66291200 -0.56995500 -19.86316300
H 15.70383500 -2.08406900 -19.75130000
O 3.69873800 -28.26979600 -9.33769700
H 3.28252800 -27.97917700 -10.14940600
H 4.59614000 -27.94108100 -9.38802600
O 0.98017900 14.65736700 -14.80359000
H 1.29059900 13.93463100 -15.34935000
H 0.31761200 15.10071800 -15.33308200
O 0.19121000 12.59720300 -26.65760600
H -0.59421400 12.63357600 -27.20381700
H 0.91395200 12.46745100 -27.27138500
O 10.27757300 6.63920700 -1.61480000
H 10.20748700 5.94946000 -0.95457400
H 10.31061700 7.45600100 -1.11713400
O 24.54709400 7.17436600 -15.25156100
H 24.05300400 6.69374100 -15.91596800
H 24.40344900 8.09818300 -15.45612100
O -3.30159100 15.92011600 -6.11961000
H -3.75428800 15.55329400 -5.35995900
H -2.44851700 16.20004400 -5.78821700
O -9.30934400 -23.52709800 2.50352100
H -8.73329800 -23.14596300 1.84059600
H -10.03971800 -23.90151400 2.01129800
O 14.86582800 14.01789100 -15.63848600
H 15.54791100 13.64069900 -16.19440900
H 14.38527700 13.26641800 -15.29167600
O -4.27410600 19.27111500 19.02527200
H -4.74111600 20.10601700 18.98782100
H -4.42078300 18.94487300 19.91294800
O 10.95336800 -3.58415800 -6.24925900
H 11.88066700 -3.78657500 -6.12393500
H 10.63881500 -3.31874800 -5.38523900
O 17.70385000 -1.16834200 -18.15895100
H 17.67936900 -1.01252200 -19.10324000
H 17.00887500 -0.61759800 -17.79893900
O 5.03724200 15.00238500 25.48691100
H 5.75851700 15.22917200 24.89963500
H 5.16129800 14.07425000 25.68462700
O -22.89588300 -0.21631900 -10.39698700
H -23.71253200 -0.67618300 -10.59236200
H -22.64049000 0.19624900 -11.22189900
O 15.38736500 19.92279400 -15.49491900
H 15.24544500 19.25424300 -14.82450200
H 15.69990200 20.69064100 -15.01674700
O -1.83518200 -22.89048000 -3.13558600
H -1.93549700 -22.19907100 -2.48102300
H -2.13556100 -23.68847600 -2.70097000
O -0.13288300 21.70001600 -3.50071100
H -0.67648900 22.26363000 -2.94990000
H -0.02983600 20.89032800 -3.00100600
O 6.84289500 -21.32912700 -5.63658200
H 6.25276000 -21.26275000 -6.38751200
H 6.86313100 -20.44995800 -5.25899800
O -18.47528900 7.58859400 -21.27600800
H -18.72445400 6.98695400 -20.57422000
H -17.75859500 8.10893100 -20.91335600
O -15.15088000 7.88040700 -1.75884000
H -14.48801500 7.65897100 -2.41316300
H -15.41881200 7.04158500 -1.38399900
O -14.51706200 23.46013600 0.75769400
H -13.83747200 23.06477100 0.21142800
H -15.33800200 23.28268100 0.29890800
O -5.16120100 -9.09112000 -22.28124500
H -4.31306000 -8.99547400 -22.71491600
H -5.79919500 -9.13981400 -22.99293900
O 5.08538200 -28.66014400 4.42590400
H 5.03608200 -29.33630300 3.74993100
H 5.43486100 -27.88893700 3.97978700
O -10.00726400 10.73961800 13.66798100
H -10.27927200 9.84656500 13.45577800
H -9.16449500 10.85279500 13.22883500
O -2.10672300 16.66946500 -7.90584100
H -2.20993000 17.60031200 -8.10442000
H -2.86316400 16.24465800 -8.30988900
O 10.41891300 25.90036400 10.90239500
H 10.35441600 26.30718300 10.03816100
H 10.09687800 25.00742200 10.78047100
O 9.45446300 -21.70355800 17.41046800
H 9.35405200 -20.88636600 17.89901400
H 8.94762400 -22.34976600 17.90184000
O 9.36434300 6.33858300 -27.06785200
H 9.52585700 7.16011300 -27.53214000
H 8.55152400 5.99856600 -27.44152300
O 2.36655900 -14.07217400 -15.08691000
H 2.30257300 -15.00469400 -15.29396800
H 3.28676400 -13.84985500 -15.22731600
O 18.83109700 13.99268700 4.90863000
H 18.26496400 13.32305000 5.29287300
H 19.60931900 14.00836700 5.46544500
O -5.30068800 -21.01727900 20.10259800
H -5.11302900 -20.79141800 21.01382400
H -6.18596300 -21.38067500 20.11475900
O 3.53349100 16.64084100 24.71262400
H 2.91892500 17.27425200 24.34159600
H 4.35732700 16.79522600 24.25069600
O 11.10296300 14.66788400 9.94489400
H 11.09763500 15.60150300 9.73302000
H 11.54534700 14.24893600 9.20685900
O -23.58709800 7.56552700 7.90115500
H -22.69310800 7.84025100 7.69653600
H -24.11185600 8.36341900 7.83858400
O -7.27491700 -12.58053200 26.24100700
H -7.25325800 -13.39090700 25.73170800
H -6.80250200 -11.94072900 25.70866000
O 3.51452100 9.64090600 -4.81417600
H 2.79052600 9.80243400 -4.20894700
H 3.10142700 9.31193800 -5.61233000
O 16.53303000 15.29020000 -12.97431700
H 17.37298700 14.87965800 -12.76818700
H 16.02221300 15.22781200 -12.16741500
O 18.16179700 18.89278200 9.49426100
H 17.85210700 18.56357100 10.33822400
H 18.33971000 18.10997600 8.97322500
O 7.51978500 25.79766400 4.20295600
H 8.07718000 25.33697300 3.57555100
H 6.92976900 25.12800700 4.54843900
O -1.81981100 24.99179600 -14.97191800
H -1.44680200 25.54063400 -14.28184300
H -2.31371700 24.31460800 -14.50997700
O -7.20438400 -13.57906800 -6.12293200
H -7.26462000 -14.38807200 -6.63131000
H -6.91618300 -13.85421700 -5.25278900
O -4.55384900 -19.56662400 6.81127200
H -4.76084600 -20.32957400 7.35129200
H -4.07662300 -18.97424800 7.39201400
O 3.43285800 14.09586200 19.81050800
H 4.17523300 14.16982700 20.41048300
H 2.68244300 14.42813000 20.30284100
O 5.00896400 27.70317800 -9.80640800
H 4.11578100 28.00236100 -9.97750700
H 5.26282200 28.13487000 -8.99086200
O -7.70435900 15.53892000 20.60283800
H -8.00254200 15.68054200 21.50150000
H -8.48724900 15.64439500 20.06258300
O 0.93782700 -6.12701800 -12.73174900
H 0.13025400 -6.34411000 -12.26563800
H 1.62883000 -6.59101200 -12.25937200
O 12.85483200 -22.69817400 9.72895800
H 12.74788800 -23.39503000 10.37666000
H 13.30708300 -21.99474800 10.19433600
O 8.24203200 22.19346200 12.04417000
H 7.37934400 22.57971100 11.89203900
H 8.30278900 21.46975700 11.42089200
O 19.16626800 -16.86923000 11.42882600
H 20.00140900 -16.96825200 11.88631500
H 18.59818900 -16.40978000 12.04697600
O 21.01024400 -9.42136700 -4.26045400
H 20.34483200 -9.50110900 -4.94414300
H 21.74522000 -8.97539000 -4.68096700
O 5.42767000 -3.14543500 23.64630800
H 6.12486400 -3.16419300 22.99046500
H 5.87955800 -3.06279200 24.48588200
O 24.65738300 4.93935800 12.40148000
H 23.86667900 5.16610100 12.89131400
H 25.38308400 5.21392100 12.96173900
O 4.81638000 -12.40913900 20.33719100
H 5.38373300 -12.31327300 19.57202200
H 4.32637200 -11.58854700 20.38657100
O -19.41291900 -17.01079600 -6.18404500
H -19.44341100 -17.86964000 -5.76212200
H -18.73213400 -16.52851800 -5.71515700
O 12.95148500 22.21054500 0.99616400
H 12.20537600 22.05865600 0.41580800
H 12.74448200 23.02261600 1.45834200
O 11.32345600 -12.28837100 24.42852200
H 10.74122300 -11.93319700 25.10039900
H 11.20176300 -11.71885500 23.66907500
O 18.90645500 -12.87989600 0.32246100
H 18.26512300 -12.57815800 -0.32113000
H 19.54188800 -13.38866100 -0.18082800
O -18.87526400 15.82913200 -16.08657000
H -18.32261900 15.12128400 -15.75476100
H -19.73275500 15.42835400 -16.22799800
O -13.22580900 10.24046500 19.91093000
H -12.37233000 10.59596300 19.66242100
H -13.04660500 9.66034300 20.65070100
O 12.85642000 -9.59715200 5.55916200
H 12.79825300 -10.54980300 5.63422500
H 12.46778800 -9.39149000 4.70911200
O 27.89216300 -9.58155400 5.37477900
H 28.24576900 -8.88471300 4.82166200
H 27.85935400 -9.20671800 6.25474500
O 17.73350200 -14.68889600 -0.63658200
H 17.50078500 -14.58360000 -1.55925000
H 16.91931500 -14.94458400 -0.20340600
O -20.34980200 -20.65042800 0.16301500
H -19.72649200 -21.37668700 0.13863200
H -21.06348400 -20.91699500 -0.41622300
O 5.35332500 26.11904500 2.49294800
H 5.50253900 25.25199900 2.87047700
H 6.14772100 26.61504700 2.69000900
O -29.11059600 -2.60683200 6.56107400
H -28.93171800 -3.26743500 7.23052800
H -28.93399600 -3.04403500 5.72825700
O 7.95386100 13.47057100 25.59875800
H 8.50415100 13.59014600 24.82452000
H 7.31442400 12.80425500 25.34764000
O -12.44032200 -21.23027700 -5.62714700
H -11.90081500 -20.76166100 -4.99005000
H -13.21599700 -21.50647000 -5.13933300
O 8.63746000 22.77356600 -2.79426200
H 8.98673000 22.48636300 -3.63811500
H 7.68939300 22.81270000 -2.91898200
O 10.64270900 13.09223700 5.79381400
H 9.69645100 13.17945500 5.67740300
H 10.93501700 12.55872900 5.05500200
O -11.52929800 17.72003100 -11.39298100
H -10.99861400 18.35247600 -11.87769600
H -12.42532100 17.86409900 -11.69679800
O 14.25366200 -10.18891800 -24.04135900
H 14.24201000 -9.95984600 -23.11186900
H 14.03691000 -11.12065800 -24.06956300
O 7.16582200 28.32130100 3.79514900
H 6.66091100 27.83434200 4.44668500
H 7.94971600 28.61559000 4.25863700
O 1.63662400 -19.70759800 17.41189000
H 2.00660700 -20.53210200 17.09587100
H 0.69149300 -19.79800500 17.29159300
O -1.57455100 14.72095400 16.79400400
H -2.34202600 14.71845600 17.36631300
H -0.97330300 14.08616700 17.18318600
O 21.41618900 8.48293400 -18.58375100
H 21.66642800 9.40297700 -18.49735400
H 22.10228600 7.99577900 -18.12782500
O -5.20969800 17.43548300 16.71543900
H -4.72144800 17.17611800 17.49704300
H -5.82383800 16.71861300 16.55781300
O 4.22303200 -20.33414000 11.91261400
H 4.82181700 -19.58714200 11.91602300
H 4.77637900 -21.09431900 11.73414500
O 7.05624500 -4.74956000 -2.62007700
H 7.92421600 -4.63386900 -2.23303100
H 7.16898100 -5.43192000 -3.28158400
O -6.63522400 1.57415900 23.94498200
H -7.02917300 0.71218900 23.80942600
H -6.37913200 1.58721000 24.86702500
O -8.29854600 22.05010900 -10.10019900
H -8.58520000 22.40573500 -9.25881800
H -8.58937400 21.13834400 -10.09573500
O 28.70572200 -6.76092200 5.28055000
H 28.49120000 -7.10239800 6.14884500
H 27.86909200 -6.71741800 4.81786800
O -8.23685700 -7.87243400 26.45150700
H -7.68653200 -8.28782100 27.11570400
H -8.61284300 -7.10652400 26.88502000
O 1.44011400 25.98048000 -9.95344400
H 1.84612100 25.97783700 -10.82045800
H 1.55662200 25.09001100 -9.62267400
O -16.42023200 19.68815300 2.76460400
H -16.77981700 19.97644700 1.92546900
H -15.97645700 18.86210500 2.57322300
O -18.63246800 14.76629100 -10.89610400
H -18.29715800 15.65379700 -11.02441300
H -17.92657900 14.19010600 -11.18876300
O 20.39785000 15.92290500 14.10498000
H 19.88495000 16.23248300 13.35821600
H 21.30909000 15.97047900 13.81637200
O -8.93522400 14.51336500 -5.74953500
H -8.94304900 13.66475200 -5.30641400
H -9.48762100 15.07931400 -5.21057600
O 23.72124800 -5.71055800 15.77484400
H 23.18137800 -6.37806800 16.19855800
H 24.29020300 -5.37567300 16.46770700
O 1.90981700 29.71376600 3.67397800
H 2.63336100 29.57697000 4.28580500
H 1.11994700 29.68218300 4.21344400
O 15.03709400 -20.12960100 8.23298800
H 15.56750900 -20.29422500 9.01280900
H 14.30182500 -19.59995400 8.54083400
O 10.28153800 -7.68363600 -15.92947700
H 10.36296900 -6.91406300 -15.36583800
H 9.69495400 -8.27493500 -15.45809500
O 4.03613600 -23.59076500 -5.42317600
H 4.73477300 -23.27046300 -5.99403000
H 3.59455800 -24.27175100 -5.93030900
O -18.94577200 -22.14917300 4.60530800
H -19.79194800 -21.97918100 5.01961600
H -18.42868200 -22.59868000 5.27349800
O 10.04139700 -18.47382200 -17.08156900
H 10.71011000 -18.11452700 -17.66491400
H 10.10474000 -19.42291700 -17.18703200
O 5.28262000 -13.36208800 1.19656400
H 4.71037700 -13.35269000 1.96403500
H 5.81730000 -14.14959300 1.29590700
O 15.31951400 -19.94675900 -8.34572500
H 16.20048300 -19.60274300 -8.19703200
H 15.23108300 -19.99830400 -9.29727100
O 8.39827200 -19.24975200 -14.73928000
H 9.11941700 -19.64077300 -15.23285300
H 8.41795100 -19.68355300 -13.88643400
O -13.33066800 -23.60453300 8.88786900
H -12.99653600 -24.19612300 8.21337700
H -13.95076300 -23.03507000 8.43277400
O 5.45552100 11.73955200 24.85424900
H 4.61805900 12.01367900 24.47998400
H 5.36691400 11.88880600 25.79541300
O -23.34244400 3.52737200 17.30184300
H -22.58561300 2.94124100 17.28702400
H -23.54603100 3.64560100 18.22947000
O 1.33462900 -26.04690200 13.01904900
H 1.24160600 -26.92416700 12.64714100
H 0.45201200 -25.79974400 13.29440000
O 8.26079600 3.90603800 24.04501700
H 8.79381900 3.93620700 24.83971100
H 7.78167000 3.07935800 24.09937700
O -14.67683600 24.30083700 -4.54370400
H -13.84642800 23.83007400 -4.47045100
H -15.33456400 23.69829300 -4.19693000
O 15.95665800 -23.18714000 -4.46749900
H 15.81309000 -23.14805500 -3.52176000
H 15.38805500 -23.89269900 -4.77538700
O 18.70858200 -8.78170100 18.38336300
H 18.76541300 -8.18709800 19.13154700
H 18.44109200 -9.62221100 18.75472400
O -5.48863800 -8.80745500 -3.36759400
H -6.18078800 -8.39625100 -3.88566900
H -4.86529300 -9.14498300 -4.01058200
O -28.73360300 1.91752200 -7.69232600
H -28.47643000 2.18554000 -8.57470500
H -27.91922400 1.64765400 -7.26821000
O 6.98824500 16.66016600 7.31460700
H 6.29702700 17.23886700 6.99229600
H 6.94285800 15.88478400 6.75546400
O 5.47088100 -1.38296200 29.10380500
H 5.55964300 -0.78275500 28.36324100
H 6.35680400 -1.70500100 29.26918000
O 0.45525200 -0.79822200 4.47113100
H 1.03601700 -0.12341500 4.82314000
H 0.17365600 -1.30460600 5.23283700
O 3.25220200 -2.50385600 -2.63243200
H 3.70716600 -2.91711200 -3.36645500
H 2.48134800 -2.08993900 -3.02021200
O -1.40053100 -25.44053100 -10.26606600
H -0.53129000 -25.59784900 -9.89696800
H -1.98304000 -25.37658300 -9.50942200
O -24.31857100 11.49419400 -1.25464600
H -23.66161500 11.39722000 -0.56503300
H -25.06824100 11.90700600 -0.82627800
O -2.51930900 -9.40115100 -13.64817500
H -1.95638800 -9.85577600 -13.02128000
H -2.87767700 -8.65688800 -13.16489100
O -7.34500100 24.76258900 -3.17096900
H -7.33329700 23.81829100 -3.01372100
H -6.71903200 25.12574700 -2.54471300
O -24.52570900 12.92670900 9.53267700
H -23.99243400 13.71893300 9.60021900
H -25.03465700 12.90092100 10.34275400
O -5.20359900 -5.52846700 5.87005400
H -5.84567100 -4.83983300 5.69659200
H -5.29922400 -6.14480900 5.14417900
O 0.36981200 -21.96478100 -12.43551200
H 0.95138600 -22.32193100 -11.76411300
H 0.94115500 -21.76316500 -13.17634700
O 5.92688500 -28.02433500 -4.44573900
H 5.06025500 -28.07530500 -4.84936800
H 5.83627100 -27.37856700 -3.74524600
O -15.91230500 14.12086700 0.33832100
H -16.76277700 14.10953900 0.77778900
H -15.71309500 15.04784600 0.20816000
O -11.36584900 25.11678000 -11.83373200
H -11.74164000 24.43734100 -12.39382600
H -11.96123400 25.17958300 -11.08708000
O 20.51093800 -17.78205300 0.71047300
H 20.67480900 -17.43906500 -0.16820100
H 21.06268900 -18.56100600 0.77917700
O 24.57109300 -11.69877000 -6.54912900
H 24.35098900 -12.21370200 -5.77262400
H 25.33044800 -12.13865300 -6.93096600
O 9.31871100 -21.61539900 -9.26490500
H 9.43762300 -21.33043600 -8.35869400
H 9.99110300 -22.28181500 -9.40524300
O 22.10875300 -11.66914700 0.00357200
H 21.85280900 -10.80277800 0.32052400
H 22.44023000 -12.12737000 0.77562800
O -26.66769900 8.38837600 -7.67644600
H -27.43719400 8.66033000 -8.17692600
H -26.26436600 7.69559900 -8.19922600
O -9.88758100 -5.48291900 21.68160400
H -9.44067700 -4.68879500 21.38799400
H -10.81756500 -5.25700300 21.68472600
O 2.30505800 -17.50560000 -23.23701600
H 1.84648900 -16.68563900 -23.05278200
H 3.14156000 -17.43005100 -22.77824200
O -18.67082000 -6.59954400 18.56583400
H -18.02669400 -6.75062100 19.25781600
H -19.46935100 -6.33752900 19.02367000
O 6.69725300 -13.85514700 6.18896400
H 6.74220600 -12.91177700 6.34579100
H 5.78208000 -14.02603200 5.96721300
O -0.64780800 8.95900000 -4.86095800
H -0.04232300 9.69770700 -4.92624000
H -0.26984700 8.27895100 -5.41826900
O -10.93211900 17.89107100 -19.41847700
H -11.02717200 18.66986700 -19.96711500
H -10.54343000 17.23037800 -19.99147100
O -11.61415900 -17.86123000 3.51961400
H -11.36784400 -18.46114900 4.22387700
H -11.16973300 -17.03951800 3.72744300
O 1.18579200 10.02921400 8.23082600
H 0.62322000 10.45754600 8.87627700
H 1.65901300 9.35757200 8.72161700
O -23.74123700 17.33543400 -4.73771900
H -24.26566000 16.81408700 -5.34578200
H -23.38095700 18.04613900 -5.26782600
O 1.10567700 14.11082600 -1.98269700
H 0.52230700 14.20755200 -1.22977900
H 1.98131800 14.29410500 -1.64272800
O -6.89927100 5.06152000 5.77228500
H -6.09654100 5.31950200 6.22575200
H -7.18326000 5.84706700 5.30518300
O -3.70472300 13.96149200 -9.81949300
H -2.85462900 13.58975900 -9.58344900
H -3.54722300 14.90095600 -9.91178300
O 4.41505000 -14.54052300 -19.91027000
H 4.33533200 -15.33998200 -19.38962400
H 3.75117100 -13.94814300 -19.55775500
O 9.68366300 -9.40469000 19.02435500
H 9.54476400 -10.15541900 18.44670900
H 8.80504300 -9.09614500 19.24513300
O -15.21292200 22.94475300 -8.97633900
H -15.21167200 23.30823000 -9.86202800
H -15.28609500 21.99820000 -9.09716700
O 22.53198100 16.06306800 -10.81987400
H 21.89266900 15.51152900 -10.36860300
H 22.55608700 16.87678000 -10.31667500
O 20.61550900 -12.34072800 -3.61779100
H 21.11152800 -11.59887600 -3.96446300
H 20.78671000 -13.05922800 -4.22636600
O 12.18030000 -9.18985700 -17.21632900
H 11.26584500 -9.44171100 -17.08631100
H 12.15039300 -8.45732400 -17.83148600
O -20.10254600 18.43309100 5.38723800
H -20.83833800 17.87948200 5.12515300
H -20.03849200 19.09987500 4.70370900
O 3.27730000 -8.58151500 6.45657800
H 4.16555500 -8.49847400 6.10920200
H 2.71169400 -8.61365400 5.68523200
O 28.43397500 -8.56285600 -2.20673600
H 28.53624500 -8.27908100 -1.29812400
H 28.36852100 -9.51662400 -2.16246500
O 6.22924600 2.05569100 -1.71941800
H 5.30103300 2.12602000 -1.94310500
H 6.61750400 1.54637800 -2.43059500
O -13.28588900 25.96754200 -4.89482100
H -13.82522900 26.29536400 -4.17495500
H -13.85296700 26.00240300 -5.66496600
O -6.76329900 -5.45215200 1.10871500
H -6.91620600 -6.33146000 1.45512400
H -6.53300700 -4.92202200 1.87150200
O 1.59693200 -6.47567600 -3.88618900
H 0.86658100 -6.99840700 -4.21770300
H 2.06110800 -6.17519700 -4.66732300
O 18.42815400 17.03073800 -14.69259500
H 18.94033200 17.45559300 -15.38087700
H 17.68934000 16.62662300 -15.14730600
O -3.77453200 2.30932900 9.41931500
H -3.10833100 2.80888700 8.94689600
H -3.31727500 1.93833500 10.17376600
O -0.63702100 -15.61163700 11.05283900
H -1.20290200 -15.37033800 10.31927600
H 0.16038500 -15.09680900 10.93030800
O -9.68039000 28.39633400 -0.23700200
H -10.58074000 28.07270900 -0.20237700
H -9.14935600 27.69123600 0.13280400
O 11.25047200 15.21378500 -0.91065800
H 10.93680000 15.45434500 -0.03870500
H 11.33882600 16.04332100 -1.37967800
O 6.48364400 -12.16144200 -12.74878300
H 6.00180100 -12.35458200 -13.55319900
H 7.17690800 -11.55744700 -13.01428600
O -19.20529200 15.07598400 -3.14585000
H -19.93215500 14.48064700 -3.32971400
H -19.56176500 15.95294900 -3.28648200
O -3.43296100 -16.21406700 -20.77869300
H -3.66707000 -16.91243400 -21.39028100
H -3.66484300 -15.40220200 -21.22927300
O 8.14513600 24.91926800 -11.68851300
H 7.83536500 25.08855700 -12.57842600
H 9.09734100 25.00166800 -11.73783500
O 3.96190700 -2.74155200 -6.51227200
H 4.52622400 -3.03339600 -7.22846800
H 3.42437400 -2.04488600 -6.88861000
O 1.88885000 -9.31889900 -20.62957000
H 2.34075600 -8.54218300 -20.29933500
H 0.96805000 -9.18316300 -20.40681400
O 0.93503600 22.40695200 -8.21247700
H 1.51427200 22.03182500 -7.54890600
H 1.36496200 23.21657400 -8.48741700
O -18.10391800 8.06294800 -4.85689900
H -17.71541000 7.25729100 -5.19828000
H -18.72955000 8.33924400 -5.52634800
O -11.39953500 8.16841700 14.45902700
H -11.81127300 7.41405200 14.88088900
H -10.90949700 8.60486300 15.15565700
O 8.37351200 25.48102500 9.46681400
H 7.49384800 25.21225700 9.73236400
H 8.29838300 26.41454900 9.26982100
O -1.76325200 -20.21646200 0.46137900
H -2.10761100 -19.33552800 0.60947900
H -2.20480600 -20.52527100 -0.32956000
O -15.87298600 18.66561100 -13.35246600
H -16.01094500 18.53404100 -14.29066500
H -15.00855900 19.07050800 -13.28361400
O 1.05581200 16.27818300 17.78324800
H 1.62028900 16.74735000 17.16858500
H 0.55424300 15.66810200 17.24274300
O -6.96025800 18.09277900 7.69208700
H -7.11350400 18.97402300 8.03338900
H -6.88964300 17.53580400 8.46714200
O -7.28894700 -16.36917500 -5.67510900
H -7.66422400 -15.89796000 -4.93100900
H -8.04042100 -16.73650800 -6.14015800
O -10.52947200 28.02107900 1.99615100
H -11.19648900 27.70966200 2.60825300
H -9.73350000 28.10799100 2.52035800
O -5.01281200 26.95194100 -7.31255500
H -5.50540100 26.31618800 -7.83191600
H -5.20818300 27.80057500 -7.70950300
O -26.31497200 -5.10611100 -12.29984600
H -25.52198900 -4.90036400 -11.80445800
H -27.03581800 -4.78719800 -11.75708200
O 6.01392600 -23.59817900 -8.97966100
H 5.68812100 -23.58943200 -8.07947400
H 6.42731400 -24.45486000 -9.08513700
O 20.26432100 -11.67000400 1.61852200
H 20.21295500 -12.52083600 2.05442000
H 20.77512800 -11.11862900 2.21095600
O -21.79386500 10.84076600 -2.62331000
H -21.53485900 10.03662800 -3.07368800
H -21.17268500 11.50395900 -2.92369100
O 4.79534200 19.23507300 -8.85062100
H 5.22026500 19.72535000 -9.55463100
H 4.15626300 18.67434400 -9.29002800
O 5.09046800 -14.29577100 -22.52773800
H 4.43869100 -13.90840700 -23.11228700
H 5.52577300 -14.96737200 -23.05250300
O -14.51108700 14.04358700 9.46518800
H -15.09194700 13.37265800 9.82437900
H -14.05819400 13.61593500 8.73860700
O 28.93737900 -2.84196000 -5.84501900
H 29.45457800 -2.42751900 -5.15414600
H 28.03669300 -2.56282300 -5.68142400
O 0.79984800 -7.72719100 -10.56800900
H 0.65973100 -6.99655300 -9.96543400
H 0.56461200 -8.50886000 -10.06843400
O 18.24911200 -6.87225500 -11.44947400
H 18.36968500 -7.80598600 -11.62317000
H 17.41427600 -6.81243700 -10.98537400
O 0.33759000 27.04922000 2.89066500
H -0.49488300 27.50645400 3.01103200
H 0.51501400 26.63179500 3.73339500
O 10.41450000 -3.56091100 -20.86428400
H 10.57883700 -4.38954600 -21.31474900
H 11.10434500 -2.97198100 -21.16955900
O 13.84599500 -23.19245300 12.27032800
H 14.63532800 -23.39523300 11.76793800
H 14.16163700 -22.95230500 13.14131400
O 9.02987200 -20.23517000 -0.70060600
H 9.90323400 -20.62734200 -0.70179800
H 8.62515900 -20.52933300 -1.51644500
O -22.15998500 11.20806200 -11.37875500
H -21.73674400 10.45416600 -10.96757500
H -21.82028600 11.96952600 -10.90897400
O 4.20075400 23.90017400 11.53230100
H 3.54169700 24.24024100 10.92685800
H 4.89015700 23.54290900 10.97283400
O -4.77923900 10.57937800 -27.66304000
H -3.83315100 10.70699200 -27.59097200
H -5.16539100 11.32190900 -27.19887200
O -3.90289700 -5.65292500 -6.92050200
H -3.97226000 -6.08393900 -7.77254600
H -4.79564900 -5.38278300 -6.70617800
O -19.06097300 15.69145400 -5.48132700
H -19.93683900 15.32400600 -5.36131500
H -18.46150100 14.99621300 -5.21079000
O 19.15248400 2.83931100 -18.40630900
H 18.71842100 3.53106800 -17.90668500
H 19.31416300 2.14042200 -17.77280200
O 10.12001000 13.95933900 -12.68227300
H 9.67007200 13.27266700 -13.17481600
H 10.00135800 14.75465200 -13.20123000
O -8.11623800 12.58011200 -9.47301100
H -8.98378900 12.41224200 -9.10458800
H -7.60847900 11.79217700 -9.27999600
O 1.49940200 -8.34929200 -27.77565500
H 1.79875400 -8.68635000 -28.62025100
H 1.18144500 -7.46568800 -27.96021900
O 14.16127800 -12.58173100 -3.20732800
H 14.36104200 -12.96130800 -4.06323500
H 13.54397700 -13.19169800 -2.80384900
O 5.78974600 -6.61925600 -6.41761500
H 6.15833600 -6.02224100 -7.06898100
H 5.77572700 -7.47501700 -6.84586100
O 1.53538800 0.25534100 -28.29955700
H 1.22606600 -0.63807400 -28.14892000
H 2.46862300 0.16526900 -28.49159000
O -2.78771900 16.63055500 13.90435900
H -2.12324400 17.30543700 13.76446800
H -3.28127300 16.59533700 13.08516400
O -10.71876400 -22.61589500 3.92461500
H -11.09587900 -22.10112900 4.63831100
H -11.37181900 -23.28859500 3.73249100
O -2.71578900 10.54615300 -20.66968900
H -2.07548300 10.44931400 -19.96456900
H -2.24659800 10.99967400 -21.36975700
O 13.04355500 -15.08385600 16.22318700
H 13.53891400 -15.57650000 16.87777300
H 12.79724300 -14.26903100 16.66057300
O 26.79966900 -13.01088300 -2.02285400
H 26.62440500 -13.75052300 -1.44080800
H 27.28490800 -12.38365700 -1.48708600
O 2.23789900 -3.98343800 -4.60885000
H 2.19758900 -3.09255400 -4.95707700
H 1.68037700 -3.97082000 -3.83108000
O 5.97419300 28.71521900 0.60052400
H 6.11266600 29.36232600 -0.09131400
H 6.22347500 27.87783800 0.20992400
O 1.49841000 6.04645200 -1.73102100
H 1.26660800 5.82188000 -2.63235200
H 1.85252400 6.93420300 -1.78019600
O 20.45406600 -5.33298500 -8.32573200
H 20.39302200 -4.47905100 -7.89721000
H 20.17424700 -5.96354800 -7.66240000
O 21.07545600 -14.86432400 13.40991100
H 20.37000100 -15.50696600 13.48675900
H 21.39050200 -14.73423800 14.30419300
O -10.64397800 8.36373900 -6.63087500
H -10.87987400 7.81213900 -7.37696700
H -10.12709000 9.07746700 -7.00415200
O -11.48896000 10.83711400 -12.47787800
H -11.83159700 11.63616500 -12.87872700
H -10.58999800 11.05084900 -12.22867500
O 6.64643900 -24.29834000 -5.32501100
H 6.91158200 -23.52063400 -5.81637200
H 7.29263800 -24.96684800 -5.55181700
O 12.68165600 -7.04527900 25.95266000
H 13.45167900 -7.56679800 25.72540600
H 12.02374500 -7.68271700 26.22968400
O 5.52069200 5.64317700 23.00512100
H 4.90927500 5.47425800 22.28804500
H 6.11980200 4.89687600 23.00077500
O -21.03040900 6.95569000 -4.57801800
H -21.38788300 7.71798500 -4.12229900
H -20.08610500 6.99792700 -4.42827300
O 8.66281400 20.39926200 -15.91413200
H 8.51473300 20.17427600 -14.99542900
H 9.58781600 20.20927000 -16.06967200
O -0.02040700 -4.46686600 26.79705400
H 0.13779300 -5.38318100 26.56923600
H 0.13838800 -4.41495800 27.73939500
O 4.50842500 -24.63314900 -15.36288000
H 4.93025000 -24.75594900 -16.21349500
H 3.94510800 -25.39897900 -15.25290300
O 1.86152400 -16.54905700 -16.79691700
H 1.03562100 -16.35939200 -17.24242200
H 1.86345000 -17.49792900 -16.67219100
O -7.59879900 -27.91733700 7.79169100
H -6.96977200 -28.28453300 7.17035800
H -8.41968800 -27.85254200 7.30398300
O 6.09576300 2.70635200 5.64091600
H 6.74496900 2.87533400 4.95788000
H 5.38426400 2.24466300 5.19759900
O -20.81785800 7.35238800 17.53889700
H -19.90836200 7.62860600 17.42451800
H -21.06350100 6.95655700 16.70289800
O 7.29534700 20.48753800 20.26922900
H 6.57945300 21.12316100 20.26274400
H 7.22769300 20.04692200 21.11610400
O 18.52688700 13.53593300 -5.81030000
H 19.38342600 13.95988300 -5.86659900
H 18.34956200 13.45934900 -4.87295900
O 0.89986400 18.89100300 -2.96992200
H 0.42306600 18.84369600 -2.14107500
H 1.65165400 18.30969900 -2.85672000
O -14.74653100 10.25010600 23.81931900
H -14.50639700 11.17525500 23.76458800
H -14.17207100 9.80773300 23.19464300
O 3.50542900 19.59941400 1.00387400
H 3.27347700 20.20716900 1.70629400
H 3.80804500 18.80880500 1.45028000
O -5.62957500 -24.75362800 0.35765800
H -5.59359700 -25.69639400 0.52032400
H -4.76695900 -24.42549100 0.61091200
O -19.52910000 11.20833600 -10.85927800
H -19.71853300 11.93282700 -10.26279600
H -19.63205900 10.41796800 -10.32952900
O -14.31949600 20.95357500 11.41678600
H -14.39463200 20.02568600 11.64025300
H -13.47271000 21.22565400 11.77012000
O 0.21315500 -13.89489400 -24.32477600
H 0.30190400 -13.87730000 -25.27786400
H 0.80369900 -14.58952700 -24.03381300
O 6.76351800 -2.59783200 -2.96991300
H 5.86864900 -2.93787200 -2.95786800
H 7.05028500 -2.62282900 -2.05719400
O 4.43199800 -26.62948700 -12.17559400
H 5.15371700 -26.63662300 -12.80458700
H 3.67343300 -26.94664700 -12.66539700
O -7.24992100 -6.38292200 4.15596100
H -7.02482200 -5.47716300 3.94267100
H -8.06222900 -6.32447900 4.65861200
O -1.67404300 -22.30248500 2.66491500
H -2.10194500 -22.09218600 3.49511700
H -2.11165000 -21.75334400 2.01463700
O -29.18004300 2.20750800 -4.55934400
H -29.42102100 2.99903700 -5.04098200
H -28.66716700 1.68767100 -5.17792700
O -1.95120800 24.83016600 -2.31881600
H -1.24529100 24.39794000 -2.79988200
H -2.44420000 25.31227300 -2.98247900
O -8.18300300 -13.21494400 17.50719500
H -8.89466900 -12.65575000 17.19511400
H -7.40024900 -12.66584400 17.46592100
O -18.38432100 17.75731300 -5.14254400
H -18.64810900 18.15533600 -4.31275200
H -18.24166400 18.49414000 -5.73638900
O 5.75228100 -1.51683100 5.24757200
H 6.24374700 -1.06788000 4.55948300
H 6.19146700 -2.36025800 5.35557000
O -1.95318900 -5.94957000 22.41632700
H -2.52861500 -6.20572200 23.13732100
H -1.71315200 -6.77068400 21.98729100
O -15.89067400 2.17190400 -25.35290200
H -16.19199300 2.32857800 -24.45779200
H -14.96260900 2.40550400 -25.34628800
O 13.47453800 22.35004800 6.81244000
H 13.82262200 21.86496300 6.06404700
H 12.76112000 22.87842600 6.45499100
O 26.60937500 1.38618000 -1.55831900
H 26.71312000 0.59184400 -2.08256000
H 25.97353200 1.91761500 -2.03706500
O 9.92891400 -13.58750300 22.32624800
H 9.14511400 -13.07878900 22.53464800
H 10.51138200 -12.97327400 21.87973900
O -9.30920500 -21.54601500 14.41736800
H -9.76985100 -20.78355500 14.76811300
H -9.27457200 -22.16965700 15.14248000
O -1.54607500 -13.31436700 -21.83351900
H -0.82982100 -13.34420400 -22.46806700
H -2.30309800 -13.67146600 -22.29753600
O -8.13869200 -24.68313800 -9.30696000
H -8.09009400 -25.47076300 -9.84903600
H -8.93244000 -24.23274100 -9.59510000
O -12.51008500 6.57260600 17.33992500
H -13.04018600 6.62764300 16.54460900
H -11.60458400 6.64976500 17.03987400
O -1.49577900 -9.97729000 28.25282600
H -2.00619300 -9.51096600 27.59057100
H -1.13142200 -10.73538400 27.79625700
O 2.18631900 20.01121000 -1.55066800
H 3.13093800 19.92713500 -1.68177800
H 2.06993300 20.04345200 -0.60128300
O 23.55939400 14.01826800 3.80275900
H 22.97653900 14.56931300 4.32543600
H 23.60759300 13.18866100 4.27746600
O -22.58654100 7.66861600 -10.18010900
H -23.04422300 8.13256200 -10.88142400
H -23.22718500 7.59438100 -9.47301500
O 17.24657800 -21.61417600 0.19779800
H 17.23462500 -22.57032400 0.15087500
H 17.08105600 -21.40925900 1.11786800
O 22.39105000 -13.16175600 -6.06642500
H 22.68975400 -13.05849700 -6.97012600
H 22.12108900 -12.28520900 -5.79310600
O -18.11057300 18.30237400 2.43897600
H -18.82152900 18.73011400 2.91662000
H -18.51857400 17.95565200 1.64573200
O -12.32226100 -11.66586900 -10.96734800
H -11.69084200 -12.04934800 -10.35840100
H -13.16791000 -11.73751400 -10.52501100
O 8.63207300 -23.54920000 15.10658500
H 7.81770200 -23.12403000 14.83715400
H 8.41926900 -24.48075300 15.15987400
O -12.61354600 20.67526800 -8.27209800
H -12.67671500 19.72082000 -8.23208600
H -13.51950500 20.98373500 -8.27053800
O -12.62831500 4.22231600 -20.77128200
H -12.93302500 5.11608300 -20.92906500
H -11.67608600 4.26665700 -20.85619900
O -8.95145400 15.49640500 17.04349700
H -8.95272500 14.86089000 17.75951400
H -8.11245900 15.95090600 17.11721500
O -12.41776500 15.24371200 -2.39066400
H -11.96989100 14.61036600 -1.82955500
H -12.11282700 16.09974300 -2.09042700
O -4.93798700 21.58466800 14.85560400
H -4.88699700 22.51752000 15.06476600
H -5.86456500 21.36157400 14.94278200
O 3.74813500 -12.60343100 -13.32912800
H 3.87217700 -12.34245800 -12.41640200
H 2.79960200 -12.65636800 -13.44488200
O 9.68487500 -17.28533400 7.32975500
H 10.23359100 -16.84517400 6.68034600
H 9.09302200 -17.83831300 6.82000900
O -6.08236200 -20.43840500 3.46751200
H -6.69750400 -19.96169300 4.02510300
H -6.38945200 -21.34476900 3.47835400
O 20.11476800 -20.59218700 8.16427800
H 20.79959300 -20.24976200 7.58954200
H 19.69883200 -21.29360400 7.66335100
O -1.55549700 27.18612300 -9.63589500
H -2.01925200 26.63841800 -10.26954500
H -1.33456800 26.59735900 -8.91446200
O 5.72280800 -14.87770200 -15.22500500
H 5.48367300 -13.95074900 -15.23654500
H 4.97854900 -15.33045000 -15.62125700
O -2.48175900 15.75656300 -15.85015500
H -1.88705200 15.96203100 -15.12858200
H -3.30770700 15.51746900 -15.42996400
O -0.78877500 -5.20170500 -24.34225200
H -1.28590700 -5.58000700 -25.06772400
H 0.12981300 -5.31615700 -24.58517900
O 14.92840900 21.76473700 13.15834400
H 15.21398100 22.53855800 12.67232800
H 15.63884200 21.58221800 13.77307100
O 20.64808000 0.57869800 -15.59040800
H 19.84062600 0.58056000 -16.10477700
H 21.35184600 0.50227400 -16.23445000
O 1.96228100 9.55626000 16.64224400
H 2.65932200 9.18327100 17.18222100
H 1.78120500 8.89169500 15.97780300
O 2.24982200 -19.63157300 12.58315700
H 2.83998700 -19.23975200 13.22716300
H 1.41499600 -19.73093800 13.04044200
O -0.78085600 17.73881100 -14.45105600
H -0.21473700 17.19761200 -13.90044300
H -0.95209700 18.52500600 -13.93289600
O 18.14050300 22.19931300 -7.81643200
H 17.57915800 22.92331700 -8.09440900
H 18.58989800 21.91475700 -8.61203800
O -1.75206800 -1.66405400 2.00079500
H -1.34242900 -1.40665800 1.17465600
H -2.55360200 -2.12171300 1.74779400
O -8.94885400 25.82498700 3.18632200
H -8.19868100 25.31584100 3.49384800
H -9.09102400 26.48873300 3.86096800
O 20.31692000 8.94112000 -13.46937200
H 21.16272300 9.38502600 -13.40513100
H 19.67687400 9.58161900 -13.15950100
O 10.14660500 -27.71973000 -5.35794700
H 9.79507200 -27.44159400 -6.20389400
H 11.04089900 -27.37953300 -5.33741000
O 8.64526600 1.71182300 -0.00988300
H 8.57839400 2.15222800 -0.85731100
H 7.80449700 1.26969400 0.10650800
O 9.67287900 -1.36017300 -1.20071500
H 10.32492400 -0.97636900 -1.78731000
H 9.09759900 -1.87085500 -1.77007900
O 15.68253100 16.81797000 -0.78464700
H 15.43007800 17.58272700 -1.30231200
H 15.65710200 16.08407400 -1.39837900
O 28.27603400 -3.73269100 -8.37919700
H 28.67601000 -2.86395300 -8.33587800
H 28.24416400 -3.94445900 -9.31196500
O 5.09366100 -16.33531800 11.43073100
H 5.80734600 -15.80130000 11.78007500
H 4.39231900 -16.26559400 12.07816800
O 8.11590400 10.24222500 26.14817600
H 7.78536900 10.68523200 26.92987500
H 7.36125900 10.17585200 25.56335000
O -7.14133100 5.85086400 -3.57524500
H -7.37395400 5.56048800 -2.69312800
H -6.41484400 6.46145200 -3.45148200
O -9.00522700 4.33775200 12.77042800
H -9.19000300 4.81122400 11.95910600
H -8.32804000 3.70272600 12.53788100
O -12.82819700 -3.09878200 20.61330700
H -13.00804300 -2.38972500 21.23092900
H -12.17881500 -3.64931100 21.05050000
O -12.39052300 -26.01807700 0.46288600
H -11.51154200 -25.86925200 0.81189500
H -12.35848400 -26.89272500 0.07574000
O 8.68599900 -6.74422400 2.76709000
H 8.02094100 -6.65670200 2.08400900
H 9.47669300 -6.35466300 2.39431300
O -6.42095500 9.84735900 19.31757000
H -6.59427000 8.91481500 19.18762500
H -7.28513300 10.25210700 19.39032200
O 6.19520100 0.48174300 2.99906300
H 6.47519900 1.12178100 3.65367300
H 6.91442600 0.44102000 2.36900500
O -9.04211200 26.53890900 -10.67544900
H -9.95187900 26.25281800 -10.59155200
H -8.76027200 26.73356800 -9.78181000
O 19.33663300 -15.74908600 -1.89243500
H 19.81629700 -15.61850800 -2.71062400
H 19.85577200 -15.29874200 -1.22640000
O 4.79793400 -20.78684300 4.95868900
H 5.15162300 -19.99253000 4.55802500
H 5.11014600 -21.50313300 4.40608800
O 16.71991700 -11.25623700 12.70477200
H 17.33070100 -10.78627000 12.13676100
H 17.24394000 -11.53404200 13.45586600
O 0.52643700 -29.98561400 0.76717600
H 1.26493100 -29.94194300 1.37486200
H -0.23572900 -29.72609300 1.28454300
O 17.45393500 11.43676400 -15.93780600
H 16.80294200 11.97702200 -15.48959600
H 17.39855100 10.58011600 -15.51471800
O 6.35224800 21.29660500 10.42182800
H 6.77153200 20.81916800 9.70571600
H 5.55653900 21.66689800 10.04019100
O -3.51800400 21.67206800 12.64378000
H -4.41983000 21.36306600 12.73203500
H -3.19243900 21.74547600 13.54074000
O -23.30118500 1.54054300 -8.03202800
H -22.43663000 1.51165500 -7.62181900
H -23.92171000 1.45870100 -7.30803300
O 20.32462900 11.59798200 -12.42000500
H 19.38317900 11.71685900 -12.54690200
H 20.68699100 11.53024400 -13.30319400
O 16.18487500 -7.52738600 24.09677700
H 16.89778000 -6.96729500 23.78916400
H 15.61058200 -6.94613000 24.59501900
O 18.26471800 -7.70087000 -13.81798200
H 17.67944100 -7.36432600 -14.49676900
H 18.85725100 -8.29729200 -14.27525900
O 15.40311200 -8.97213600 1.53550900
H 15.99937500 -8.69490000 2.23133400
H 14.53934300 -9.00139800 1.94656300
O 15.79322900 -3.67175000 -14.02503400
H 15.20487300 -3.58236200 -14.77497300
H 16.08252500 -2.78066800 -13.82959300
O -6.47909000 -24.87315300 -4.83376900
H -5.64009000 -24.98290500 -4.38589000
H -6.82038800 -24.03635400 -4.51880900
O -1.08824800 -6.97412500 4.91070800
H -0.39812500 -6.73633200 4.29123500
H -1.46935700 -7.77890500 4.55999400
O -4.53951700 -3.15024700 -28.69128700
H -4.99488300 -3.69406800 -29.33429800
H -5.01155100 -3.28947000 -27.87048300
O 24.50980900 -8.51044900 -1.25485500
H 24.16024500 -7.62654800 -1.36924700
H 25.38410000 -8.48321200 -1.64317400
O -11.68089300 -17.17708300 19.58470500
H -10.80002700 -16.96434500 19.27587000
H -11.59505100 -18.03031700 20.00960600
O 13.98695900 21.49638700 15.56605700
H 13.19901500 21.56738400 16.10519100
H 13.73844800 20.92709400 14.83800200
O 25.81448000 -13.62742000 -3.89069600
H 25.23068900 -12.86903400 -3.86618600
H 26.41345300 -13.45553800 -4.61706000
O 5.15747200 24.33109900 -16.24446400
H 5.71795700 24.06683600 -16.97424700
H 4.32675100 24.58162800 -16.64826600
O -20.09024200 -9.70247400 -10.97450100
H -19.72297100 -10.54685500 -11.23659600
H -20.65172200 -9.89860200 -10.22470800
O -0.79906500 27.28283600 -3.54779200
H -0.60276700 26.34692900 -3.59368900
H -1.60210100 27.34240700 -3.03058700
O 29.33731400 0.83766400 -2.06143600
H 29.84622400 1.08064000 -2.83508700
H 29.96076600 0.39950600 -1.48243500
O 2.96228400 12.50156100 7.49278700
H 3.67861800 12.05451300 7.94398000
H 2.67413800 13.18298400 8.09987200
O 12.23800700 10.16107400 -24.93688400
H 11.42673900 10.30214200 -24.44851300
H 12.72524700 10.98015900 -24.84963300
O 14.95008800 -12.33606100 13.44032200
H 14.58639300 -11.48687400 13.18898600
H 15.32741500 -12.19667300 14.30871900
O 9.12257500 -3.81967800 0.06386300
H 9.46168500 -3.82561600 -0.83142000
H 8.68688600 -2.97279300 0.15807900
O -1.64129900 19.77562700 -19.10224100
H -0.89005100 19.94441600 -18.53329600
H -2.40868900 19.93980800 -18.55445100
O -10.74284400 -18.87828800 -15.11460600
H -10.96927800 -17.98911700 -14.84135600
H -11.09037400 -19.44503200 -14.42617300
O 24.13438200 -2.34298300 14.86841600
H 24.35390900 -3.19777400 15.23949800
H 23.75372300 -1.84837500 15.59393500
O -6.96554000 15.83074000 -19.17881300
H -7.44636300 15.45978100 -18.43870400
H -7.07428000 16.77788700 -19.09511900
O -20.80587400 14.85061700 15.11260900
H -19.94434700 14.55687500 14.81587900
H -21.29218700 14.04687700 15.29541600
O -17.89324600 10.83343900 12.18446900
H -18.27794900 10.42175600 12.95847400
H -18.12770800 11.75872200 12.25372000
O -1.74447800 -5.53228400 -4.86229000
H -1.46025000 -6.44509100 -4.81170600
H -1.89225000 -5.37014400 -5.79384400
O -6.27628200 27.38561400 8.79118000
H -6.68967400 26.65324400 8.33368300
H -6.39315000 28.13775200 8.21105300
O 6.33232100 22.87357400 17.50946700
H 6.97595300 22.65397200 16.83561700
H 6.79144400 22.75026700 18.34008100
O 11.04863000 -12.29116300 -21.16965200
H 10.28761100 -12.86187400 -21.06148200
H 11.42020500 -12.53196400 -22.01810000
O 2.02934500 19.17974500 -21.74900400
H 2.29705700 19.85774900 -22.36965100
H 2.54145800 18.40779900 -21.98933200
O 23.22413700 16.71170100 4.75899500
H 22.35050500 16.52877800 5.10521300
H 23.81940300 16.54998500 5.49072100
O -1.89232100 -25.23495900 -12.53104200
H -2.37144000 -25.89982000 -13.02598400
H -1.26697100 -24.86517800 -13.15403300
O -0.54408800 -3.01350700 -24.37507400
H 0.27709300 -3.03950900 -24.86654900
H -1.22838800 -3.15821500 -25.02830400
O 1.98828800 -22.27023100 11.46416500
H 2.94510800 -22.27494500 11.43197700
H 1.76901900 -21.74981000 12.23682300
O -3.92733700 18.91326000 15.72200400
H -4.60869800 19.23605100 15.13199000
H -3.62162200 18.09797000 15.32481700
O -3.61493800 -0.23084300 -29.06492900
H -4.16593400 -0.61343400 -28.38185600
H -2.71728700 -0.43042600 -28.79977800
O -14.24995300 8.56275800 -5.42551000
H -14.46855400 7.87180700 -4.79992100
H -13.65269700 9.14351300 -4.95441900
O 23.16376500 -11.79242500 -8.72527400
H 23.68321000 -11.88790200 -9.52378700
H 22.25337500 -11.79348400 -9.02041200
O 11.19511200 -20.53403900 1.16719900
H 11.98380000 -20.09594200 1.48751900
H 10.65534100 -20.67247200 1.94527300
O -7.69431100 11.90321100 -3.17473700
H -8.42288300 12.34603400 -3.61022800
H -7.49517100 12.44564300 -2.41183000
O 10.50100400 -25.97646700 10.50151900
H 9.54797400 -25.96157300 10.41166600
H 10.74606200 -25.07103600 10.69141100
O 23.84160400 6.35133800 7.45806400
H 23.16545500 6.25774800 8.12935000
H 24.18315700 5.46719500 7.32558600
O -6.53210600 21.41416000 11.17920500
H -7.34616200 20.97223200 11.42122400
H -6.77143200 21.99713600 10.45894200
O 2.75561800 -8.08217100 3.08979800
H 3.65968400 -7.77525600 3.01888100
H 2.40432000 -8.02525300 2.20139100
O 5.88565700 8.88429700 4.28798400
H 5.85471100 7.97406900 4.58309500
H 6.28055500 9.36678700 5.01405200
O 19.93407500 -18.64671400 -5.99885700
H 20.14152700 -19.13256800 -5.20043900
H 19.84884400 -17.73543500 -5.71917300
O 3.76485400 -12.11517000 -0.26855200
H 3.26216100 -11.44004500 -0.72469700
H 3.83676500 -11.80343800 0.63342800
O -11.40175800 16.81071700 16.19762600
H -12.28197800 16.72423900 16.56409000
H -11.49958100 17.40847600 15.45665800
O 4.02498600 14.10645500 4.87810300
H 3.52135600 13.58053600 5.49965500
H 4.65644700 13.49854900 4.49388400
O -6.87513700 9.67532000 -26.08866400
H -6.03108800 9.31841000 -26.36572100
H -6.98062900 9.38666200 -25.18231800
O 14.73817500 -14.44987900 -14.55455900
H 14.59430300 -14.90250400 -13.72329900
H 15.44438600 -13.82826500 -14.37911800
O -0.00426300 -13.51211000 0.23765100
H 0.22516700 -13.04736400 -0.56729300
H 0.52114300 -14.31183700 0.22025700
O 6.47266700 5.67657800 25.02734200
H 7.31753300 5.85338700 24.61321500
H 6.52817400 4.76891700 25.32565200
O -5.38054700 -7.52931100 -6.41069900
H -5.80286500 -7.05583500 -5.69374000
H -5.18484400 -8.39558800 -6.05407400
O -14.44047000 5.74771800 17.99927000
H -15.01268800 6.43487200 18.34124400
H -15.01830700 5.00232300 17.83676300
O 1.21306700 5.28990000 28.07973300
H 1.02805200 4.57861900 27.46621000
H 0.94401800 6.08692100 27.62334900
O 25.11468500 -14.19479300 4.24100900
H 25.31371300 -14.99190000 4.73250800
H 24.73991000 -14.50017500 3.41505400
O -12.52184500 -23.80236800 -12.28309700
H -11.79305400 -23.52537600 -11.72748800
H -13.29278900 -23.76499800 -11.71726500
O -8.83160800 -23.39480200 -5.13441000
H -8.31346900 -22.73212400 -5.59152200
H -9.38629500 -23.78480300 -5.80979100
O 9.07804100 -11.82974600 9.71546100
H 8.14210600 -12.00193600 9.82004600
H 9.40211800 -11.67530700 10.60261400
O 18.27828800 22.73264300 -2.77699100
H 19.00489600 23.10098600 -2.27407300
H 17.58765100 22.57325000 -2.13392600
O -8.25420900 19.60901300 18.08677000
H -8.34546000 18.89020000 17.46103600
H -8.46336400 20.39901700 17.58870800
O -1.00766300 -27.01358400 -0.08090900
H -0.16219100 -26.88228200 -0.51044200
H -0.99006900 -27.91886600 0.22904400
O 7.05807900 -2.74638100 2.46559700
H 7.84383100 -2.33696500 2.10292000
H 7.17039300 -2.70018400 3.41489600
O -0.02358800 -6.92481100 -6.40697000
H -0.23796700 -7.82853900 -6.17485100
H 0.93282800 -6.89113000 -6.41408500
O -6.72638300 8.73847100 -23.09542000
H -6.16900000 9.51548800 -23.14157400
H -6.11939800 8.00231500 -23.02084900
O 7.25800000 -21.29021100 3.98762000
H 7.41626600 -20.36955600 3.77807500
H 7.35616600 -21.75388600 3.15618300
O 14.71043200 11.49166100 -20.62160800
H 13.94254500 11.83817000 -20.16681000
H 14.37350100 10.78768700 -21.17551700
O -17.91543500 -22.13687900 -0.92372600
H -17.89695900 -22.99111200 -1.35559100
H -18.33220200 -21.54962200 -1.55408400
O 4.88620900 -15.71633200 -6.96105900
H 4.88420200 -14.76154200 -6.89080600
H 4.99253700 -15.89573500 -7.89509600
O -4.01707100 0.36337500 2.83823900
H -4.03826900 0.77150400 1.97247800
H -3.22326300 -0.17120800 2.84068700
O -4.10023300 8.81399500 -6.70683900
H -3.88938400 9.68477900 -7.04424300
H -4.64843600 8.41314400 -7.38116000
O 1.47845400 -15.72945200 2.10943000
H 2.07330500 -16.10610200 2.75815900
H 1.92039600 -14.94018800 1.79691400
O -0.49674300 20.36787800 8.50061000
H -0.91216700 20.79789100 7.75289700
H 0.44104600 20.39332600 8.31135000
O -6.46567300 23.26752300 -12.42910200
H -6.23886800 24.19555000 -12.36675900
H -7.32369100 23.19365900 -12.01165100
O -24.68052600 -8.73395000 9.07570900
H -25.29034100 -8.29555300 9.66942300
H -24.15623500 -8.02970900 8.69481500
O 19.76866700 -12.82613900 -13.36709500
H 20.09420700 -12.69901200 -12.47579000
H 20.26250300 -13.57208100 -13.70711200
O -6.60973500 22.08817400 -14.66715000
H -6.03887700 22.85255500 -14.58711600
H -6.47707000 21.59418500 -13.85826800
O 22.53444700 4.39327100 -15.84951800
H 22.11374900 3.84968800 -15.18311500
H 23.43858400 4.49404200 -15.55236700
O -25.80302200 0.41665800 -9.42693600
H -25.33707200 1.17084500 -9.06547400
H -26.37235900 0.11486100 -8.71934100
O 17.63913200 12.46225400 -20.52777800
H 17.72093800 11.72956100 -19.91701600
H 17.97652800 13.22064700 -20.05141600
O 5.41221100 -14.01850300 8.16177600
H 4.53939300 -13.92939500 7.77861700
H 5.72224500 -13.12123800 8.28307100
O -18.19960700 -19.50165800 6.02582200
H -18.74394300 -20.11341200 5.52982100
H -18.80966100 -18.84811400 6.36733500
O -20.38757400 10.24104300 9.33792300
H -19.68765900 10.13151900 8.69396300
H -21.19212300 10.01950700 8.86937300
O -10.85736400 -21.53680100 12.69988400
H -10.69278500 -22.24846300 12.08100400
H -11.39657600 -20.90961200 12.21842600
O -25.27602500 -5.84811800 8.63352000
H -25.87666900 -6.19114000 9.29542900
H -24.41613300 -5.85188300 9.05362700
O 6.41428700 15.38039500 -15.77735100
H 5.76501900 16.06100800 -15.95561900
H 7.25790100 15.83194000 -15.79574400
O 7.04797000 15.02133200 -20.84626400
H 6.22444100 15.07597100 -21.33142000
H 7.73101900 15.16744400 -21.50049000
O 3.89064200 12.07566600 14.76856900
H 4.41708000 11.60062200 14.12532800
H 3.09745400 12.33227200 14.29854400
O 7.91368500 13.05010700 19.26530000
H 7.83217500 12.59050400 18.42942700
H 8.69059900 13.60084700 19.17040200
O -1.32520700 -9.79450700 -23.49807000
H -0.57079000 -9.20509900 -23.49406200
H -1.69111900 -9.72247200 -24.37945300
O 11.10725200 4.09003100 -26.28674100
H 11.60512200 4.47183500 -25.56361400
H 10.19910300 4.08150200 -25.98489700
O -4.20597200 17.67563200 8.97277100
H -3.99131400 17.08908100 8.24720800
H -4.83367300 18.29991500 8.60920600
O 19.65639000 7.07420800 -14.42748400
H 20.25078300 7.44451400 -15.08027300
H 19.19672400 6.36901500 -14.88281500
O 1.89219900 0.54098700 25.85011300
H 1.13213900 0.07698800 25.49857900
H 2.22733800 -0.02414500 26.54597500
O -26.47744900 11.77459600 -2.75071500
H -27.20048800 12.25647600 -3.15267000
H -25.79299800 11.75185700 -3.41924100
O 24.56788700 12.51037400 0.46859100
H 24.50723300 11.56605000 0.32321500
H 23.72329100 12.75785400 0.84452900
O 12.74278700 18.06348600 0.55045300
H 12.55891400 18.22796500 1.47549300
H 12.37793400 17.19613400 0.37581100
O -13.40723400 8.91028700 0.06988700
H -14.23074300 8.57764300 0.42729900
H -13.27664700 8.42483800 -0.74448600
O 9.74607600 9.00705300 5.97429200
H 10.30163100 8.26918800 5.72234500
H 8.95696400 8.91657800 5.44040600
O 11.53976700 14.35997100 -23.61619900
H 11.34502400 14.16960100 -22.69837700
H 11.92529500 13.55425800 -23.95987200
O 8.89044800 17.81718000 6.45385300
H 8.91585500 16.87600400 6.28034700
H 9.23405300 18.22491000 5.65911500
O 14.15996200 25.28891900 -7.49631500
H 13.64307200 25.81593900 -6.88669400
H 14.22978500 24.42880000 -7.08250600
O -6.94111200 21.14980600 0.77515600
H -6.97824500 21.87125500 0.14690900
H -7.58945300 20.51778200 0.46512900
O 14.43488200 -13.01185700 8.90280700
H 14.56837100 -13.43022000 8.05209200
H 14.72833300 -12.10877100 8.78347100
O -9.47588200 13.25104900 -13.37186600
H -10.42932400 13.28017300 -13.29023600
H -9.18311900 12.68723700 -12.65609900
O -0.95482200 19.96651000 1.75410000
H -1.28902100 19.80652200 2.63686700
H -0.00278100 19.98686700 1.84959800
O 17.08423400 15.25112000 -5.02382400
H 17.12795100 16.13026500 -5.40032900
H 16.61810800 14.72605700 -5.67417200
O -17.46411400 19.38994500 10.74705500
H -16.57867600 19.74929300 10.80562800
H -18.04414800 20.14806200 10.81588000
O -9.73820100 2.00446700 28.00353900
H -9.17858100 2.64810700 28.43841300
H -9.50326300 1.16496400 28.39845100
O -0.56771900 -19.67212800 -7.17913800
H -0.47214400 -19.95748800 -6.27029400
H 0.21085100 -20.00380000 -7.62606000
O -2.71035300 16.05232300 -13.00302600
H -3.09986700 15.72717700 -12.19116300
H -1.76690700 16.05266800 -12.84231800
O 5.95470900 -0.93309000 25.68262300
H 6.06555800 -0.21003100 26.30024700
H 5.43626600 -1.58461200 26.15448400
O 14.22099300 -2.43808100 -22.08011000
H 15.08604000 -2.26162000 -22.45040200
H 13.87861900 -1.57991600 -21.83061000
O 12.90286600 -14.83208100 8.36522900
H 12.34773900 -14.14009100 8.00530500
H 12.94614300 -15.49723100 7.67848300
O -10.28069500 -17.62936400 10.66174300
H -10.08100100 -18.53797100 10.88783700
H -9.48482500 -17.14117100 10.87192100
O -11.46502400 -11.68151000 23.36020000
H -11.42268900 -11.30593900 22.48058800
H -10.64897800 -12.17146200 23.45985800
O 3.53512400 -0.26844000 29.05689400
H 3.36135900 -0.85312100 28.31898200
H 3.18398400 -0.72393700 29.82183900
O -15.82663600 8.09970300 16.38877200
H -14.99110100 7.63235100 16.39362600
H -16.24544100 7.86694600 17.21723000
O -11.37874900 15.41572900 -9.34858500
H -11.39366200 14.55905800 -9.77573000
H -10.49839500 15.75610200 -9.50682400
O -11.34578800 -21.05256600 1.88158800
H -10.84477300 -21.86470600 1.80429200
H -11.99246200 -21.09249000 1.17721900
O 5.93067400 -18.84260100 -10.06825600
H 6.88079000 -18.84396700 -10.18589500
H 5.78930900 -19.19607100 -9.19019400
O -26.78496400 -8.14564000 -3.43352200
H -26.92904700 -8.10841000 -2.48778600
H -27.06886400 -7.29240100 -3.76109300
O 8.00960400 1.29959700 -26.40705800
H 8.80605700 0.86096200 -26.70676300
H 7.29176800 0.81496800 -26.81419700
O -4.14070800 18.21448700 -19.94931200
H -4.48230000 18.62782400 -20.74242600
H -4.82162100 17.59926500 -19.67769300
O 3.25435500 2.07495600 -0.41855600
H 2.35710400 1.76949100 -0.55344200
H 3.33319800 2.20224200 0.52669500
O 3.21501100 -29.64995500 0.29581100
H 3.44050900 -29.79595300 -0.62309900
H 4.04465000 -29.71720500 0.76813800
O -2.87793300 6.61344000 13.88892400
H -2.75671100 6.28152300 14.77869900
H -2.01274200 6.92115100 13.61933800
O 13.43077100 19.44741200 12.83759600
H 14.08546900 19.91502000 12.31867800
H 12.86908800 19.01395000 12.19530300
O -17.85042400 20.80477000 -7.55713200
H -17.40838800 21.57271800 -7.19460900
H -17.38498200 20.61223200 -8.37089500
O -10.53003800 -19.20638200 -7.06482100
H -9.85081300 -19.87451700 -6.97095000
H -10.08277100 -18.37483800 -6.90860800
O 4.98068300 6.03774000 7.18696000
H 5.55443300 6.26104600 7.92010900
H 4.31421300 6.72448000 7.17592300
O 15.74706900 -12.20625400 2.99642800
H 16.29017400 -11.68599800 2.40403300
H 15.66205600 -13.05882100 2.57002600
O 7.71775600 -11.80167200 2.39223200
H 7.63333000 -11.34625400 3.23010400
H 6.92636100 -12.33486100 2.31929100
O 3.62311100 -7.01886500 -26.76022400
H 3.54495600 -7.57652800 -27.53447600
H 3.35517700 -6.14831300 -27.05393800
O -8.42545600 -13.90425900 -22.62901300
H -8.15638000 -13.46681900 -21.82104900
H -7.61147000 -14.06779800 -23.10503800
O 2.04880300 27.64455900 0.84885800
H 2.95781300 27.35316900 0.77568100
H 1.53442400 26.83949100 0.90540400
O 8.77431200 16.15236800 8.99858700
H 8.82670900 15.71770300 8.14718700
H 9.44461300 16.83485800 8.96991900
O -6.83646600 -11.93461800 -12.43562900
H -6.08859800 -11.59020600 -11.94712500
H -7.06354100 -12.75375100 -11.99588500
O 17.89355400 -6.43754600 -5.78093300
H 18.55097900 -6.74966000 -6.40297800
H 17.05146500 -6.64357700 -6.18633800
O 22.49475500 10.35844100 -11.75453800
H 22.64390500 10.99892200 -12.45031100
H 22.90624600 9.55288400 -12.06706100
O -2.08235500 -14.02054900 -14.50286500
H -2.62228100 -14.42424300 -13.82310500
H -1.18739300 -14.06390300 -14.16659100
O -12.06220400 22.84965100 7.61698100
H -11.55627100 23.06464400 8.40079900
H -12.30649600 21.93055700 7.72423700
O 8.05494500 -18.39214400 -21.12597900
H 8.27670300 -17.68913400 -21.73684900
H 8.52015100 -19.16140400 -21.45421500
O 24.33222500 16.03754300 2.23860100
H 24.69988600 16.90246300 2.05611500
H 24.78601900 15.44424900 1.64027900
O 12.38585100 25.19338300 -2.44186800
H 12.28448200 25.24359600 -3.39253400
H 11.82202100 24.46922300 -2.17056500
O -9.25202500 20.87466400 4.41503900
H -8.84542500 21.45698900 5.05701700
H -10.06341600 20.57914600 4.82762800
O -9.18047300 22.68708100 10.80924600
H -9.07006400 22.27826900 11.66787600
H -8.55113200 23.40795100 10.79537500
O 1.86201300 21.76157800 -20.56635900
H 2.62898900 21.37398400 -20.14436200
H 1.30002100 21.01945500 -20.78847600
O -0.96355700 -19.64978900 -20.12558900
H -1.00473500 -18.71009400 -19.94714800
H -0.49827300 -20.02378800 -19.37755700
O -19.88612300 11.29874800 3.75081400
H -20.43460700 12.08159600 3.69717000
H -19.75709100 11.15043300 4.68744100
O -6.22551100 -5.62977200 -27.46308400
H -5.86421900 -6.15996800 -26.75250500
H -6.41533100 -4.77988000 -27.06613300
O 18.90351200 -18.10343500 13.41683100
H 19.44785100 -18.77696400 13.00864600
H 19.20192400 -18.06067400 14.32514800
O 13.59610700 15.89346600 6.19865100
H 13.69100400 15.57430800 5.30104600
H 12.82937600 15.43668500 6.54418200
O 9.21943000 -7.10518900 -20.95513700
H 8.31316900 -6.82119700 -20.83430000
H 9.75034400 -6.41460400 -20.55873000
O 3.33983400 -11.46145800 9.44309900
H 2.70653500 -11.93042000 9.98676100
H 3.97477400 -12.12509400 9.17411100
O -7.88532200 15.14954500 -7.99159500
H -8.28542300 14.62675300 -8.68669900
H -7.90540500 16.04972300 -8.31593000
O -0.13606900 -20.89712600 -1.20473400
H 0.34493200 -20.68281100 -0.40519100
H -0.43438000 -20.05488700 -1.54760600
O -3.95406000 -9.39464000 -11.08984900
H -4.51617500 -10.15728600 -10.95215000
H -3.25276000 -9.48414900 -10.44480500
O 18.18180500 -11.80737100 -11.37814300
H 18.08276400 -12.45439400 -10.67949200
H 18.66113500 -11.08211600 -10.97793600
O 17.23983200 20.78507800 12.49311100
H 17.06440900 21.57288200 11.97818000
H 17.46643800 20.11392100 11.84959300
O -14.36376800 22.96449700 3.84678000
H -14.43027100 22.26313700 4.49503300
H -13.94239600 23.68927200 4.30836800
O 6.14989600 17.62636600 9.23940400
H 6.27691900 18.33360100 9.87205300
H 6.78797400 16.95672300 9.48506800
O -20.01517500 11.16239800 11.29384800
H -20.51521600 10.61342700 11.89812600
H -20.28502900 12.05884600 11.49253200
O -19.89050400 -20.16512400 -7.03641800
H -20.16715900 -21.08061900 -6.99291500
H -20.32911000 -19.81030300 -7.80949300
O 1.66093500 2.59959200 -29.77960400
H 1.30664600 2.52787500 -28.89309400
H 2.29149100 1.88340400 -29.85302500
O 18.61174100 -12.82958700 -18.96040300
H 18.76304100 -12.33461700 -18.15499900
H 17.67531300 -12.73779700 -19.13531700
O -8.14083500 4.46144300 7.48442100
H -7.94049500 5.15296300 8.11547200
H -8.65652500 3.82102400 7.97416100
O -15.39654600 18.66937800 13.03981000
H -15.47129100 18.46984500 13.97317000
H -16.29860400 18.71665500 12.72362300
O 28.00124300 2.75646000 -3.33717700
H 28.33592100 2.18161000 -4.02572600
H 27.41738100 3.36727600 -3.78653900
O -0.19254900 20.92118900 -0.15519000
H 0.27386700 21.35190000 -0.87178300
H -0.12561300 19.98521100 -0.34328900
O 12.61578400 -10.90860000 10.45031800
H 12.74653700 -11.25335400 11.33384000
H 11.66923500 -10.93533700 10.31158000
O -2.15817600 22.60486900 -1.20449300
H -1.44857700 22.67810700 -0.56600500
H -2.96021700 22.73925400 -0.69992600
O 15.22142900 14.38073800 -21.08633700
H 14.75979800 13.98754800 -20.34548600
H 16.14315600 14.16409300 -20.94705200
O -13.49051800 14.20115500 -14.54102100
H -13.25543400 13.49541600 -13.93833500
H -13.27720800 13.86499300 -15.41131400
O -8.37667000 2.93917300 26.41047500
H -7.45474900 2.81298700 26.63564400
H -8.46931200 2.57263700 25.53127900
O 1.46547500 -8.91942700 -16.53101400
H 0.59219700 -9.26689300 -16.71326300
H 1.35702300 -8.37233500 -15.75329600
O -4.01495900 -17.97260900 -10.02945200
H -3.28734700 -18.06441600 -9.41405500
H -4.70667200 -17.53682300 -9.53191600
O -1.77320200 -18.05687000 17.14857400
H -1.34923700 -18.17210100 16.29796400
H -1.21468700 -17.44075200 17.62225800
O -11.50197300 1.36786500 -6.56046100
H -11.03963300 1.80694200 -5.84630700
H -10.81305100 1.05893400 -7.14856500
O -14.61076000 12.76416300 19.32683800
H -14.51692900 13.04180500 18.41542600
H -15.36869800 13.24693500 19.65604700
O 12.01192300 23.12008000 -3.89708900
H 11.13528500 22.88765900 -4.20376100
H 12.60917700 22.61386300 -4.44749600
O 3.39474500 -25.89418300 -9.45593700
H 4.08467000 -25.93177200 -10.11862400
H 3.38495500 -24.98412900 -9.15992600
O 5.59093500 12.09130400 -26.47897500
H 6.19798700 11.55095100 -26.98500700
H 4.79752900 12.13807300 -27.01211400
O 11.45784600 -22.97630000 -6.72138700
H 11.14879500 -22.39742000 -7.41848500
H 12.28412100 -23.33462200 -7.04510200
O 10.28334600 14.60774800 -10.45476500
H 10.57695300 15.32354600 -11.01867100
H 10.23200600 14.98817500 -9.57809200
O 0.97227000 22.95026100 9.99872800
H 0.89221700 22.30974200 9.29170000
H 0.87309300 23.80199700 9.57372500
O -17.46100400 -0.36375500 19.53344400
H -17.75144600 0.25527100 20.20352800
H -17.38425400 -1.20258400 19.98774900
O 5.34856400 -12.25694900 -26.65523400
H 5.24010800 -11.91549500 -25.76742300
H 4.84570600 -11.66295100 -27.21220600
O 1.34530500 -21.47828000 -9.62905400
H 1.56713600 -21.81566400 -8.76099600
H 1.22233600 -20.53731000 -9.50507500
O -5.68090400 -15.04446200 15.36688100
H -5.48321500 -14.37223700 16.01925800
H -6.26089500 -15.66057600 15.81401700
O -17.50459600 19.47367700 -12.01424700
H -18.00840500 19.91472900 -11.32998700
H -17.27675800 18.62125500 -11.64359300
O 9.71682100 9.32774400 -22.94228400
H 9.00899000 8.90577200 -23.42960100
H 9.32707500 9.57539000 -22.10402100
O 11.45715600 21.19208500 4.63944300
H 11.42959800 22.11817500 4.88060500
H 12.38390100 20.95533600 4.67122700
O 25.93648200 -6.73794400 -0.42387400
H 25.56738600 -7.26738000 0.28325200
H 26.78636200 -7.13522700 -0.61305200
O -23.49996800 2.87307900 -1.28322300
H -23.68512400 3.64409100 -0.74673400
H -23.51063100 2.13723800 -0.67138800
O 15.32850200 13.63392600 19.29371100
H 15.43979100 14.24902000 20.01885600
H 15.42281800 12.76686600 19.68770300
O -4.41871500 19.81119100 -12.56131800
H -5.28787200 19.89964100 -12.95286100
H -3.80848400 20.06867300 -13.25214200
O 24.84732700 -14.35454500 -5.87292000
H 25.57142600 -14.28128200 -6.49491200
H 24.10024500 -14.64529300 -6.39565500
O -5.77615200 14.99479800 -2.77395700
H -4.93290800 15.44084600 -2.85484200
H -5.66004600 14.16110600 -3.22936100
O -0.74268900 -2.47873900 -27.65947100
H -1.05565700 -2.94576700 -28.43438800
H 0.21150600 -2.53817500 -27.70302300
O 0.60048100 17.18235100 9.55665100
H 0.34350200 18.02767800 9.92536100
H 0.11546800 16.53261900 10.06510700
O -16.03599100 8.36740700 2.65894600
H -15.28616900 7.93681800 2.24794600
H -16.05347600 9.24707900 2.28239600
O -14.36046600 -17.76950900 9.59612100
H -14.25267700 -18.54770900 10.14324700
H -14.02632800 -17.04597800 10.12600000
O 11.82476000 -23.71160300 12.96691200
H 11.87693200 -24.54818500 12.50434100
H 11.56964900 -23.93843200 13.86099400
O 4.68153400 16.32834300 10.95555300
H 5.60272400 16.28669900 11.21291900
H 4.50388700 17.25901900 10.82064400
O 27.81992100 3.56370100 -9.47037700
H 27.89737200 4.14958500 -10.22357200
H 28.23924800 2.74886000 -9.74626800
O -0.24578700 -23.60752500 -14.71750700
H -0.59128700 -23.35962400 -15.57525700
H -0.63568200 -22.98494900 -14.10407500
O 8.33034200 -23.53173000 -4.13572400
H 9.17225700 -23.87762200 -3.83890800
H 8.44173300 -22.58122600 -4.14291400
O 7.86397700 -23.21538500 -7.77602400
H 8.32030400 -23.45327200 -8.58332700
H 7.49840700 -22.34716900 -7.94477400
O 9.36893500 -8.91822900 6.01170100
H 8.55304700 -8.93572700 6.51228500
H 10.05403200 -9.12417100 6.64742700
O 0.63479400 -3.14554300 -29.82795100
H 1.43695900 -3.35593100 -29.34958900
H 0.60600600 -2.18931700 -29.85482000
O 13.10398300 -16.92915400 9.40284100
H 13.93950900 -16.99744100 8.94046200
H 13.08584700 -17.68154400 9.99402400
O 13.46077100 26.26177700 2.07839200
H 12.80145200 25.56761500 2.07894500
H 13.92837800 26.15990100 2.90717500
O 15.22947200 -18.24220800 -2.14892000
H 15.77560400 -18.62887700 -2.83360100
H 14.36411300 -18.14723400 -2.54647600
O 11.04608000 -8.79689600 23.20206800
H 11.54851900 -8.27644600 22.57497300
H 11.19634000 -8.37717900 24.04893100
O -6.03324500 12.42285400 -4.65183500
H -5.55039200 12.07168700 -3.90343800
H -5.41600200 13.00598800 -5.09329200
O -11.29396800 -12.58224900 14.76304400
H -12.13543600 -12.17809500 14.55055300
H -11.49190300 -13.50830600 14.90145700
O -6.99347400 28.08743400 -5.37049000
H -6.88973700 28.53065300 -6.21272400
H -7.66822200 28.58581500 -4.90978600
O 3.51469200 -26.63840900 7.04524500
H 2.86653800 -26.72999500 6.34662500
H 4.32783700 -26.98166200 6.67525800
O -4.39795800 1.96143000 -27.21146600
H -3.72077300 1.32495600 -27.44142900
H -4.62439500 2.39103100 -28.03613900
O -2.54525700 -10.10311300 0.18119300
H -3.20209000 -9.85618500 -0.47008200
H -1.71409600 -10.10383500 -0.29324100
O 10.50344900 -6.68232900 -11.63072800
H 11.33304100 -6.21368500 -11.72407000
H 9.99502100 -6.16409100 -11.00715200
O -6.26203800 0.41178700 6.32907200
H -5.70859600 0.84052100 5.67604000
H -5.69629400 -0.23878400 6.74453400
O -3.82703500 13.91091600 -20.49853200
H -3.73574100 14.50730700 -21.24186700
H -3.64933400 13.04097900 -20.85567200
O 29.04141200 -1.47943700 7.05816100
H 29.05378400 -2.43668100 7.06777500
H 28.59363300 -1.24567200 6.24528700
O 8.52885800 15.90704400 -12.04261600
H 8.92073900 16.65409700 -11.58995500
H 8.30034600 15.28896600 -11.34858500
O 25.52165000 3.57251200 -14.63518600
H 26.27038100 3.29405600 -14.10752600
H 24.87073200 3.87416400 -14.00176000
O -0.53009600 15.24055200 -7.13705700
H -0.42559000 16.04707300 -6.63191800
H -1.07956300 14.67684800 -6.59277700
O 25.29022200 -0.08002200 -15.04153400
H 26.10045900 0.36154200 -14.78638900
H 25.55541500 -0.72482000 -15.69714400
O 10.04151500 -24.57580400 -1.49910200
H 9.36665300 -25.04838700 -1.98673800
H 10.57593800 -24.14746300 -2.16755800
O 4.51442900 -20.61882900 -13.50463400
H 4.59950400 -21.28958900 -14.18242800
H 4.55694000 -21.09670300 -12.67653600
O -23.05471400 13.51057000 1.20239200
H -22.55869400 12.70834000 1.03821600
H -22.39566300 14.16845700 1.42319300
O 7.18287100 -21.29773400 10.37477000
H 7.98320600 -20.77600900 10.31289600
H 6.47165200 -20.65794800 10.40232300
O -9.19415500 3.44473600 4.74959200
H -8.81198300 4.04345600 5.39149600
H -9.87975400 2.97621900 5.22536800
O 3.81658300 5.75164500 5.26651700
H 4.59462900 6.20759000 4.94508200
H 3.16677400 5.84997800 4.57081900
O 16.42969200 10.90214700 -22.42679200
H 16.50660900 10.44386900 -21.58975800
H 16.35326900 11.82784700 -22.19623800
O -2.08565200 20.78052200 21.52372000
H -2.63110600 20.35902000 20.85935700
H -1.93198900 20.10443300 22.18342300
O -10.84404100 -16.19149100 -5.85473800
H -10.14460700 -16.21279700 -6.50811300
H -11.62530900 -15.92132000 -6.33696700
O 1.29465800 -11.04631200 26.57103900
H 1.86636100 -11.66715000 26.11906800
H 0.40597400 -11.30743600 26.33026500
O -18.36381800 -22.64252700 -3.56928200
H -18.46258800 -23.25167600 -4.30122700
H -19.01212600 -21.95677800 -3.72853500
O 8.42197400 -22.03257400 -15.86790400
H 7.88066600 -21.49552700 -16.44680600
H 8.59620400 -22.83260500 -16.36339500
O -25.69460800 -5.65300000 5.19493900
H -25.64426300 -4.98572800 5.87961100
H -26.30519700 -6.30828400 5.53213300
O 2.48413800 3.39118200 -24.39781000
H 2.71118900 3.45712900 -23.47009100
H 1.60728300 3.76859500 -24.46563600
O 5.87888800 17.53772100 13.10021300
H 4.99706700 17.84011500 12.88224300
H 5.76724200 16.62908700 13.37920200
O -1.63098000 17.58304200 23.32366000
H -1.43804100 18.48339000 23.58578600
H -1.67922300 17.09137300 24.14332500
O 14.93169900 -9.09919000 -17.35458500
H 14.23434700 -9.20234500 -18.00236600
H 14.70086600 -8.30943300 -16.86579400
O -16.81789000 -18.05385500 -4.77776300
H -17.44707600 -17.55637300 -4.25507900
H -17.32820700 -18.41416300 -5.50279600
O -17.17574500 20.50808100 7.87107200
H -16.59066000 21.21472400 8.14473900
H -17.51010200 20.13377500 8.68594500
O 4.20013700 -17.77211400 -19.78631200
H 3.54200300 -17.90535300 -20.46871200
H 4.31562700 -18.63198000 -19.38232000
O -23.39565900 -4.98448600 -13.91918600
H -23.81974500 -4.19539600 -14.25690100
H -23.13657000 -5.47855100 -14.69680400
O 14.94111000 13.92307300 9.13561300
H 15.25980600 14.71870400 9.56218900
H 14.32187200 13.54007600 9.75672000
O 6.98268600 20.14394100 -21.01299300
H 7.42017200 19.43078600 -20.54761500
H 6.96684900 20.87196900 -20.39199300
O 26.92867600 11.58924900 -1.55692700
H 27.24074000 12.42056200 -1.91483300
H 26.04683800 11.77398200 -1.23420000
O 25.85163400 9.41471500 5.27018800
H 25.41847200 10.24921700 5.08980600
H 26.71358400 9.48954500 4.86109300
O 6.82796400 -17.24330900 16.17368100
H 7.02872100 -17.05323600 17.09026700
H 6.88068900 -18.19612400 16.10101400
O 7.92541500 19.20614500 7.86950200
H 8.02093900 18.40489000 8.38469900
H 8.60705600 19.79326200 8.19596300
O -9.77278600 -8.61862800 -1.69633900
H -9.62154400 -9.52782300 -1.95528400
H -9.66440000 -8.61059800 -0.74549400
O 0.87779000 22.61976500 6.16013200
H 0.66167100 22.08725600 6.92582700
H 1.73427200 22.30403400 5.87261100
O -1.47303800 14.64372000 4.47402400
H -1.49863900 14.63346800 5.43099900
H -1.56395100 15.56561300 4.23368200
O -21.84346300 -12.73461300 -14.38310600
H -21.23149400 -12.79312800 -15.11702200
H -21.40209000 -12.18497900 -13.73579700
O -0.63102000 12.75814900 27.14476300
H -0.18340800 11.98952200 27.49890700
H -1.34791000 12.40619000 26.61740100
O 17.18231900 1.33042200 -18.80628400
H 17.07163700 2.28034700 -18.85049000
H 18.01289100 1.15697200 -19.24898400
O -3.30023000 -1.08834500 27.59204200
H -3.49715700 -2.00014800 27.37663800
H -3.51220500 -1.00203100 28.52130700
O -8.29692200 8.46020300 1.44626400
H -8.98619300 8.41326900 0.78349400
H -8.75669400 8.61493100 2.27124100
O 0.56594200 2.65417700 1.39317700
H 1.30227900 2.04336600 1.35741000
H -0.18716700 2.15278100 1.08117300
O 4.40340200 -3.23110200 -10.24482300
H 5.31931700 -3.26972100 -10.52081200
H 4.13624300 -4.14459200 -10.14442800
O -9.91968900 6.80573400 20.26544700
H -10.62891200 7.21264500 20.76343100
H -9.51306700 6.18814200 20.87302900
O -2.14297700 -11.21111500 -19.91450900
H -2.13800800 -11.44094900 -20.84387100
H -1.44296200 -10.56611900 -19.81512800
O 6.02717400 19.75987800 5.80951500
H 6.58421000 20.18426400 5.15669800
H 5.63737800 19.01337900 5.35485700
O -4.28876000 24.32183400 -2.19912900
H -4.58570000 24.81430500 -2.96454500
H -3.76258700 23.60563600 -2.55426200
O -17.73516900 16.69955900 6.18353100
H -17.29102600 15.85214400 6.21797700
H -18.56071900 16.52829100 5.73070600
O -20.90347600 -10.16627900 -15.06301500
H -20.47883700 -9.94555400 -15.89218500
H -20.40068400 -9.69998500 -14.39541700
O -2.24335100 -7.20601300 1.89587800
H -1.90534000 -7.93944800 2.41006100
H -1.50929800 -6.59644500 1.82165500
O 16.94190700 -8.58202800 -7.58903200
H 16.54649600 -7.83622700 -8.04068800
H 16.44266000 -8.67329700 -6.77765100
O 12.65455900 -9.72675400 19.56752900
H 12.30281400 -9.28654700 20.34151500
H 11.89834100 -9.86926900 18.99854600
O 7.13401100 11.46351500 15.12444100
H 6.53113900 11.10260700 14.47417000
H 7.61790300 12.14697900 14.66114500
O -13.91959700 -22.34732000 2.18372400
H -13.22895900 -22.54683100 2.81600300
H -13.94742900 -21.39166000 2.14064400
O -8.13423800 -24.83636200 14.60792200
H -7.91479800 -23.90820400 14.69116900
H -8.09839400 -25.01606700 13.66859400
O -10.28486200 6.07457400 9.29888500
H -9.65537500 6.04618600 10.01965000
H -10.04442100 5.34266100 8.73107500
O 1.21920500 -26.23412400 -8.20263600
H 2.00202100 -25.93540600 -7.73946500
H 0.50408300 -25.70799500 -7.84527500
O 7.39293000 -9.30483200 -1.02755300
H 6.84099900 -8.55063200 -0.81991000
H 8.09518000 -8.95451800 -1.57531400
O 2.58604900 -4.55485000 21.98363300
H 3.29813300 -5.19118700 22.05126400
H 2.98729000 -3.77362200 21.60336200
O -11.13081700 10.20032900 -0.96670200
H -10.82567800 11.09460800 -0.81269800
H -11.20919900 10.12567000 -1.91759600
O 10.15432100 12.37369800 -20.56506900
H 10.84774300 12.70091300 -21.13835700
H 9.83314900 11.58012800 -20.99286800
O 11.27659800 -15.62133000 -15.20313400
H 11.09662400 -16.17736600 -15.96141900
H 10.95233300 -14.75503500 -15.44869800
O -19.64401700 14.08152000 12.06375800
H -20.24123800 14.50194000 11.44477800
H -18.76812100 14.25365000 11.71865600
O -12.35322300 1.54554000 -23.83049500
H -11.93557800 0.97325300 -24.47440800
H -13.08256300 1.95295700 -24.29739000
O 15.09641600 -16.03009200 -8.40565600
H 14.66048900 -15.18988000 -8.26222400
H 14.38955200 -16.64656300 -8.59598400
O -3.69226900 25.75979600 -4.73785500
H -4.06640800 24.96153500 -5.11116600
H -4.23715500 26.47028500 -5.07582200
O 6.14443800 -6.64344600 3.32011200
H 5.56523800 -7.12886900 3.90786500
H 6.82139900 -6.27541500 3.88773300
O 2.77599600 13.20186500 0.09175700
H 3.26113700 13.49263500 0.86419000
H 3.44385900 13.04417800 -0.57533400
O -5.84564500 14.50760800 22.71751400
H -5.60006200 14.04434300 23.51853600
H -6.72996000 14.20218600 22.51596700
O -13.59282000 8.24671800 19.05751700
H -14.02425000 8.39547900 18.21591100
H -12.66261900 8.16474300 18.84793400
O -1.61711800 9.66365000 -2.95911300
H -1.38529600 9.35986700 -2.08131100
H -1.05055700 10.41849700 -3.11764100
O -23.53592100 3.07633400 -13.23809600
H -24.24833000 3.03870400 -12.59964500
H -22.75074100 2.83365700 -12.74767200
O -5.38505500 9.33121000 16.44121500
H -5.62935600 9.95461700 15.75693100
H -5.93242200 9.56048400 17.19204100
O 13.65036100 20.22766700 0.28951700
H 13.90721900 19.72336700 -0.48266700
H 14.19618300 19.88934100 0.99911600
O 5.85065500 -10.69505600 -10.61547800
H 6.71899700 -10.88683200 -10.97011500
H 5.23707300 -11.07902700 -11.24157700
O 1.08583600 16.21069500 -18.31866000
H 1.66077200 16.25484000 -17.55442000
H 1.46452800 16.82301600 -18.94919300
O -26.66596500 12.51035400 -5.69972100
H -26.24428600 12.79181600 -6.51183500
H -26.36350400 13.12991500 -5.03596000
O -5.24838500 12.21309200 11.50512900
H -4.62218800 11.51363400 11.69273700
H -6.10638900 11.78965600 11.52633500
O -14.37266100 16.64603100 6.02337500
H -15.11681500 16.04617400 5.96889300
H -13.68686000 16.14999100 6.47007200
O 5.83912800 -1.36663200 -6.64766600
H 5.24300600 -0.97786200 -6.00730900
H 6.29841500 -2.05772300 -6.17083600
O 25.03690000 -5.47179200 7.36737300
H 24.46309200 -5.64834200 8.11311800
H 25.91363100 -5.39234800 7.74280500
O 13.38081400 -5.69683000 3.07435700
H 13.06069500 -4.87448400 2.70309900
H 13.53859400 -5.50637300 3.99888300
O 19.37197000 -17.86081300 -14.04841700
H 19.10734400 -17.65185000 -14.94444700
H 18.68538200 -17.48978000 -13.49447800
O 7.29421100 -16.97269700 1.63068700
H 7.52535200 -16.69041500 0.74555800
H 6.58463400 -17.60383300 1.51200800
O -17.58217100 14.23197100 19.70670100
H -16.86552400 14.84208700 19.88202100
H -17.44812400 13.50962200 20.32002000
O 6.51546400 -16.47768200 -1.29782300
H 6.43655300 -16.81717000 -2.18949700
H 5.75570800 -15.90740000 -1.18177700
O 21.11041900 -2.11524600 -16.68504100
H 21.55608200 -2.69767500 -17.30044600
H 20.76382600 -2.69221000 -16.00467200
O -3.55110000 18.12061200 -23.64425400
H -3.50630200 18.47597600 -22.75640700
H -3.24789900 17.21636800 -23.56470300
O 19.14238400 -15.36240100 -6.74054700
H 19.26848300 -16.17678200 -7.22783000
H 18.25148400 -15.08325200 -6.95100000
O 9.53512800 16.88890600 13.58773100
H 10.24277000 17.08188900 12.97245700
H 8.89654600 16.38722500 13.08132500
O 12.16556600 -16.01507000 13.93288300
H 12.07450600 -15.33827700 13.26189800
H 12.56705100 -16.75794900 13.48248600
O -5.60224400 -25.33705400 -10.44523300
H -4.88267600 -25.83976700 -10.06304900
H -5.98332300 -24.85369000 -9.71239300
O -16.03094400 10.73651100 17.19071600
H -15.82022900 11.23278800 17.98183500
H -16.58963400 10.01930100 17.48970300
O 7.49339900 -4.07654200 5.80069300
H 7.12812800 -4.38674200 4.97189000
H 8.12124200 -3.39702600 5.55576900
O 6.44901200 -15.84247300 13.94078700
H 5.76193100 -16.14006000 14.53738100
H 7.13933800 -16.50175000 14.00949800
O 25.14315900 -13.80721500 -8.78791900
H 24.32344400 -13.62083100 -8.32978100
H 25.52773500 -12.94922800 -8.96646200
O -18.24541900 20.12319300 -3.20722400
H -17.95241800 20.93446600 -2.79183500
H -17.79633100 19.42493700 -2.73112000
O -8.13305000 -14.37178600 -16.54806800
H -8.11207500 -14.85337100 -15.72090500
H -8.74921600 -13.65432900 -16.40140300
O -3.21224000 28.69993000 3.70916800
H -3.02205900 29.63212400 3.60235900
H -2.55805700 28.25079400 3.17415500
O -5.70888300 -11.52887500 -3.91066300
H -5.08999200 -11.25581800 -4.58814000
H -6.45835500 -11.88383400 -4.38837800
O -27.52999900 -8.77461900 3.38940800
H -28.01634500 -9.52955100 3.72123400
H -28.19682200 -8.18677000 3.03487000
O 3.23611600 -12.84493100 6.37758200
H 4.00666700 -12.73669000 5.81982000
H 2.78996100 -13.61965100 6.03600900
O 5.70153200 -11.55833000 23.99282800
H 5.58607300 -12.24418400 24.65073000
H 5.01438600 -11.71742100 23.34596000
O 7.92658200 16.52002400 -9.56591800
H 8.54884900 16.23526700 -8.89639700
H 8.11765100 17.44770200 -9.70311800
O 20.77159000 -8.49843000 5.41985300
H 21.70046000 -8.70395000 5.31250400
H 20.67676900 -7.60334800 5.09465400
O -4.48340200 -7.12924300 -28.16431600
H -4.59617100 -6.40988100 -28.78589700
H -4.07907800 -7.83330800 -28.67100300
O -6.92526700 -18.20374600 16.58038400
H -6.29660700 -18.47887100 15.91281000
H -7.75602000 -18.10991600 16.11459200
O 24.17494100 -8.21564800 -3.94816600
H 23.62534200 -8.60272400 -3.26649500
H 23.56651600 -7.75201300 -4.52330000
O -22.46330400 -0.04697600 -14.41232600
H -21.53507200 -0.27439400 -14.35551400
H -22.78977000 -0.52689100 -15.17325900
O -16.03028100 15.59562300 -8.27997100
H -15.68687900 14.83746900 -8.75308600
H -15.80042100 16.35046300 -8.82154100
O -8.14295000 0.72557300 26.72625700
H -7.33571300 0.50094800 27.18937100
H -7.99708800 0.44383700 25.82333600
O -0.96516600 -14.70918000 -1.37849700
H -1.13821000 -15.39545600 -0.73379300
H -0.13129700 -14.95173200 -1.78067700
O -9.49811200 -20.31567800 3.09912400
H -10.28199300 -20.28572400 3.64793700
H -9.20882700 -21.22742200 3.13000900
O -18.86826000 2.29256900 19.44887300
H -18.95466000 1.53087100 18.87536400
H -19.72044700 2.37915900 19.87571700
O 3.38014000 11.30201600 1.02061000
H 4.33509200 11.36141500 0.98743700
H 3.12085600 10.99360700 0.15252400
O -22.86944300 13.73844100 -12.95143700
H -23.54801200 13.52474800 -12.31078100
H -22.04261100 13.63112300 -12.48159800
O -16.14197500 -13.18970900 21.56543100
H -15.87897300 -12.84253200 20.71287000
H -15.76261000 -12.58793900 22.20564300
O -19.20956800 8.86623400 15.20988600
H -19.93564100 8.24223600 15.21251400
H -18.62945300 8.57419100 15.91280500
O -0.26028700 11.09821900 -22.52088400
H -0.21008600 10.36494600 -21.90740800
H -0.24740000 11.88191600 -21.97173100
O -8.38548200 -0.75024800 6.50549600
H -7.70520300 -1.05521200 7.10614500
H -8.98104700 -0.23330200 7.04770000
O -5.99820400 -18.65859800 13.71710100
H -5.12957700 -18.39691900 13.41120500
H -5.94283400 -19.60624100 13.83885200
O -8.69061900 22.29560900 8.16040400
H -8.00489200 22.61420400 8.74763100
H -9.49719400 22.34169700 8.67346300
O 6.30312100 26.31823500 -11.25532700
H 5.96259500 26.15446700 -12.13497700
H 7.09989800 26.83108100 -11.38968300
O 7.06341200 -29.11386200 1.58859200
H 6.13180800 -29.31779800 1.67276500
H 7.23160100 -29.10828100 0.64646700
O -8.73367500 -4.77450800 -8.24070000
H -9.44316200 -4.76902600 -8.88347500
H -7.96111000 -4.47888700 -8.72201900
O 21.99813900 -9.58713400 -17.73436400
H 22.32255000 -8.73901700 -18.03770600
H 21.14035300 -9.40201900 -17.35245700
O 15.80472900 -6.49114300 21.94023700
H 15.32775600 -5.98722400 22.59987700
H 15.47015500 -7.38414400 22.02102800
O 6.55007500 -27.10810500 -9.99757000
H 7.47464100 -27.19342600 -10.23093400
H 6.07749300 -27.18295500 -10.82641300
O 2.70616700 24.41998700 2.33709400
H 1.93827800 24.89475200 2.01849300
H 3.45066000 24.98318100 2.12623900
O -10.74502600 -14.70658500 -3.77436600
H -10.88123200 -15.11201900 -2.91784200
H -11.00922400 -13.79373600 -3.66113000
O -7.79246300 10.43816300 26.07631300
H -6.92511300 10.10859100 25.84041500
H -8.02210600 9.97628500 26.88244600
O -6.10541500 -8.61537200 -26.32804400
H -6.36323100 -8.50682500 -27.24363700
H -6.46948200 -9.46102200 -26.06679900
O -9.41681900 14.24967000 -10.68843500
H -9.97680200 14.39736700 -11.45077800
H -8.55347700 14.05040100 -11.05016500
O 2.08033600 26.62553300 -7.45209400
H 2.21706000 27.13331300 -8.25211200
H 2.36800500 25.73896200 -7.66924800
O -10.74554900 -13.99837700 -0.98233300
H -11.54108000 -13.66512500 -1.39782800
H -10.99511100 -14.17497200 -0.07544300
O 6.14042500 2.95940500 -28.30359600
H 7.01415000 3.17347000 -27.97596300
H 6.27535200 2.69228100 -29.21263700
O -14.08416800 17.34268200 -6.74211300
H -14.90025400 16.86173100 -6.88086400
H -13.71638000 17.46412400 -7.61727000
O 18.25242700 16.59871600 1.35313700
H 17.59867500 17.29232800 1.26328900
H 19.07991000 17.05601800 1.50167600
O -7.57289300 16.63639500 -16.42254300
H -7.33691900 17.04827800 -15.59114000
H -7.53092400 15.69534800 -16.25346400
O -26.39650100 -1.03784400 -5.31996400
H -26.02708600 -0.70568500 -6.13835600
H -26.80926300 -1.86900500 -5.55387800
O -6.79669700 19.39993800 15.27809800
H -7.56914800 19.83538700 15.63901900
H -6.80320600 18.52411100 15.66384800
O -16.42549300 -17.73102800 13.56387500
H -15.50007300 -17.48848500 13.52736600
H -16.44886700 -18.65620200 13.32010400
O 10.90742300 -24.28049200 -9.39764800
H 11.62791000 -23.72018400 -9.10865900
H 10.32826500 -24.35028300 -8.63895000
O 13.28369300 12.49502000 5.97781300
H 13.12315600 12.41964900 5.03701000
H 12.77705000 13.25810500 6.25517800
O 2.47933800 0.14502500 1.61960800
H 2.19432700 0.13165700 2.53347500
H 3.42010500 0.31691900 1.65604900
O 5.23779300 11.30363700 5.65892100
H 4.35567400 11.58221600 5.90554100
H 5.77478600 11.46650900 6.43418100
O -25.25424900 14.32490200 1.65857200
H -25.31568800 13.90343500 0.80116200
H -25.95294900 14.97889700 1.66372100
O -13.85425200 18.16803700 2.80444200
H -14.23905000 17.59427800 2.14165000
H -13.72847700 19.00753200 2.36246100
O 15.64981600 25.50905100 0.68465100
H 14.90539400 26.03261400 0.38753100
H 15.62273000 25.55976600 1.63995800
O -3.64521500 25.53019400 9.05699100
H -4.60189200 25.50275200 9.08105300
H -3.36553400 24.65456300 9.32338500
O -14.83822900 6.69233400 11.63556500
H -15.01083900 7.24944500 10.87635800
H -15.30902600 7.10628100 12.35869300
O 5.15930100 25.40941300 0.00094400
H 4.79387400 26.21469700 0.36774600
H 5.20665600 24.80073600 0.73795600
O -17.25778100 -15.11368800 -3.20226300
H -16.47952300 -14.58624100 -3.38302800
H -16.92179100 -15.94100700 -2.85792300
O -28.34936400 8.94201300 3.99711800
H -27.59603600 8.37674100 3.82528500
H -28.12452600 9.78239700 3.59822100
O 1.34107100 5.83379800 6.07700000
H 0.86871900 5.09099100 5.70059100
H 1.82321700 5.47019600 6.81946000
O -13.04773900 4.61181900 -23.06740700
H -13.53312900 4.01168200 -23.63379500
H -12.70064400 5.28180000 -23.65610700
O 18.29503200 23.08350300 4.88961400
H 17.62951600 23.77127100 4.91461600
H 18.49363900 22.89755500 5.80716200
O -6.82283200 -6.33902700 -8.43337000
H -6.44698200 -6.69962100 -9.23665800
H -7.70240900 -6.71268500 -8.38198800
O 5.52555500 10.33281700 -24.59743200
H 4.83124000 10.97596900 -24.74180600
H 5.17281100 9.73024500 -23.94291300
O 3.66771400 -5.19661700 -6.24851000
H 4.11076600 -5.18963300 -7.09716700
H 2.74069900 -5.07359500 -6.45204600
O -14.60304100 3.19484000 22.28935600
H -15.33651300 3.50231000 22.82231200
H -14.93800000 3.17827800 21.39300500
O 2.08111700 -13.07503600 -26.29226400
H 2.89971200 -13.27136200 -26.74824600
H 1.41646100 -13.04119800 -26.98001700
O 6.54267300 -10.47281300 -24.40774000
H 6.25762200 -10.04517300 -25.21547300
H 7.41768600 -10.80890500 -24.60090400
O -4.32429100 13.77553400 -1.52522900
H -3.74614400 13.64470100 -2.27702100
H -3.89269000 13.32502200 -0.79950300
O 13.26340300 3.22532800 24.57249400
H 13.00191800 4.14301800 24.65016500
H 12.91863400 2.80216200 25.35861200
O 8.67728400 -13.30487000 8.13402200
H 9.07573000 -13.42371400 7.27165400
H 7.82445600 -13.73501900 8.07423300
O 20.35962600 -4.98432100 -5.70147400
H 20.88739200 -4.98771900 -4.90271600
H 19.45296000 -4.93508400 -5.39906700
O 22.42348300 7.58658300 -12.92758400
H 21.58158500 7.42315200 -12.50207200
H 23.01800200 6.93311900 -12.55954900
O 12.91389500 -7.89804500 -10.17326800
H 12.28099500 -8.00984900 -10.88284500
H 12.80867200 -6.99052100 -9.88823100
O -18.03822300 13.00939800 -9.33898600
H -17.10662900 13.23003200 -9.33507300
H -18.27974900 12.93808600 -8.41567800
O -0.78442800 17.90050500 -0.56572400
H -1.07515800 17.02428400 -0.81924800
H -1.56604800 18.33003300 -0.21860400
O 9.46132500 11.61430500 25.07733100
H 10.27320000 11.66637200 24.57264300
H 8.77765700 11.44351300 24.42976200
O -21.02661700 18.49190000 -8.83683200
H -21.95548100 18.54498500 -8.61109900
H -21.00347400 18.05979400 -9.69045100
O -5.77496600 5.77153300 -5.49033500
H -5.57518100 4.91966300 -5.87887900
H -4.97941100 6.29027500 -5.60830300
O -9.15838300 8.56346600 -9.37399600
H -9.06271900 8.00521000 -8.60214100
H -8.29495800 8.56542800 -9.78680500
O -29.24041600 5.73803300 -3.48757300
H -29.38479000 5.47887500 -2.57732300
H -29.32199100 4.92851100 -3.99149600
O -6.51000700 -2.97173400 -0.41488800
H -6.18647400 -3.30362700 0.42280800
H -6.00728700 -2.17343200 -0.57583000
O -10.53129900 18.55393300 17.21555700
H -10.66612000 19.50176400 17.21678200
H -11.14249100 18.21597400 17.86988500
O 1.00607900 -8.37804500 22.83753200
H 0.64270200 -8.86398100 22.09700200
H 0.81528000 -8.91699400 23.60502600
O 13.83784700 -12.23978800 23.63670300
H 13.23430300 -12.98128200 23.58686400
H 13.40170700 -11.60303100 24.20259900
O 16.88948600 -13.07416300 -4.99010600
H 17.24787000 -13.52968500 -5.75209200
H 16.12847500 -12.59782900 -5.32159500
O 5.47118300 0.30757300 7.68338500
H 5.22358800 -0.36367300 8.31953600
H 5.07543600 0.02546600 6.85893600
O 14.83580200 -21.11091700 -15.25962500
H 14.19044100 -21.06603900 -15.96535600
H 15.50963900 -20.47501100 -15.49938300
O -2.72049800 -12.22346700 -8.13682700
H -3.06407300 -12.26752800 -9.02933800
H -1.85289700 -11.82915400 -8.22459500
O 9.86444500 -15.08331100 -10.08574700
H 9.17693700 -15.65460400 -9.74293600
H 10.55231800 -15.67670100 -10.38680500
O 3.60615600 2.50847000 22.43079300
H 3.46193500 1.58337700 22.63070700
H 4.55206800 2.63343100 22.50530600
O -25.56426200 15.23820500 3.79195000
H -25.38384500 15.27744500 4.73135000
H -25.13839000 16.01291300 3.42537600
O -11.45068800 -26.39843800 -5.89994700
H -11.55867000 -25.47615300 -5.66694400
H -11.86756100 -26.48788900 -6.75676300
O 13.83932700 -26.61645700 0.21888800
H 13.99704800 -25.67329300 0.17275100
H 13.40319700 -26.83521500 -0.60443000
O -22.69116800 -17.21746700 -8.52207500
H -22.39753800 -17.64604100 -9.32623200
H -23.37887600 -16.61293700 -8.80049500
O 22.29454200 -5.98482900 -6.46234100
H 22.20179700 -6.73196000 -7.05374300
H 23.09364800 -6.15982600 -5.96562900
O -13.85424900 -22.85720300 -0.42832600
H -14.70453400 -22.73801100 -0.00480500
H -13.37037900 -22.05251200 -0.24323500
O -6.00271300 -1.11578300 28.70689100
H -6.82999800 -0.80531400 29.07536100
H -5.51706300 -1.46955500 29.45181100
O -10.70984000 -21.07227600 -0.95715000
H -10.24352300 -21.20035700 -1.78341000
H -11.24434100 -21.85886400 -0.84988900
O -4.13005700 18.02877500 -0.35659100
H -3.49827200 17.34741100 -0.58714100
H -4.01538100 18.70794800 -1.02104000
O -1.71499500 -7.97906500 -10.90174100
H -1.82856900 -7.42539600 -11.67447300
H -1.28783200 -8.77184700 -11.22569400
O -5.68514900 6.78699600 27.89030900
H -4.96655900 6.55894500 27.30023800
H -5.26500500 7.20191800 28.64346000
O -22.71375900 -14.86836300 -7.09855200
H -22.67293400 -15.79127200 -6.84728300
H -21.95980400 -14.73436400 -7.67258400
O 10.51305200 -11.69171200 4.98173900
H 11.35024100 -11.78064100 4.52592300
H 10.63824900 -10.96336000 5.58980600
O -26.44218500 -7.04983200 -9.40059900
H -26.65427600 -7.95981600 -9.60918400
H -25.82118900 -6.77903900 -10.07658200
O -1.41590600 -18.85793300 19.78558900
H -1.28738000 -19.25895000 18.92580500
H -1.91425400 -18.05904700 19.61427700
O 5.71549900 -28.15880600 -0.68485800
H 5.52229600 -29.09501400 -0.73729200
H 5.03613600 -27.79718600 -0.11598700
O -1.50741700 4.36538300 9.92227400
H -0.66731900 4.82333000 9.88939700
H -2.04973400 4.79498400 9.26102300
O 3.75603000 -16.37822700 23.86148600
H 3.89401600 -16.44192200 22.91625300
H 4.47893600 -16.86975700 24.25100200
O 11.90974200 -11.18979100 -6.40985200
H 11.96072800 -11.86178100 -5.72985800
H 12.20018300 -11.62549900 -7.21092600
O 7.98855000 8.75044900 -27.56106600
H 7.59422000 9.59457200 -27.34078600
H 7.33328300 8.09862600 -27.31273300
O -3.41036500 -19.71006200 17.05846800
H -4.13290100 -19.74181400 17.68575900
H -2.68720500 -20.16434700 17.49041900
O -2.80374300 -21.80483900 10.98282200
H -2.46433500 -22.19396500 10.17663000
H -3.72926300 -21.63700500 10.80629700
O 22.91289300 12.79455900 -14.53639800
H 22.20848500 12.99481500 -13.91973800
H 23.51546500 12.23221000 -14.04999500
O -23.85462800 12.73880500 -3.09447800
H -24.10562400 13.47895400 -3.64741700
H -23.10643300 12.34030400 -3.53868400
O 28.23687600 -6.40322400 -2.57528100
H 27.86816300 -5.71476900 -2.02152900
H 29.17260400 -6.40799500 -2.37451500
O 24.58207200 -11.05984000 12.03566000
H 24.52992700 -11.86502500 12.55094600
H 24.45371800 -10.35263600 12.66756500
O -8.38189200 -9.82248600 -21.78014900
H -9.07870000 -9.77932600 -21.12504800
H -7.68345900 -10.32891200 -21.36585400
O 3.70249300 -27.99523000 2.62803300
H 4.44046200 -27.95396100 2.01954300
H 2.97562500 -28.34426600 2.11251900
O -19.19937700 -1.12679900 16.44526700
H -20.06474700 -1.48007400 16.65237200
H -19.14895500 -0.29904400 16.92296600
O 0.75947000 -15.05530100 4.17461600
H 1.45359400 -14.85655800 4.80330900
H -0.05264100 -14.80568500 4.61516700
O -17.59127700 -11.46407900 15.20618000
H -18.29756400 -11.41501000 14.56173200
H -16.91989600 -12.00957500 14.79679100
O 1.11205700 -0.41470200 -25.96335100
H 0.97256900 0.01618900 -25.11988400
H 0.49937100 -1.14987900 -25.97023500
O 11.32043100 -17.16761000 -8.56887400
H 11.90807300 -16.46430700 -8.84564700
H 11.86725000 -17.75764400 -8.05044800
O -17.36441100 16.73801800 8.34743100
H -17.53229300 17.46450200 8.94793000
H -17.53568800 15.94825400 8.86012400
O 7.80425500 18.73979500 19.03435700
H 7.08440500 18.24747700 19.42932600
H 8.28983600 18.09697200 18.51772700
O 6.33304200 26.46024100 -2.47860000
H 6.15590900 26.62058700 -3.40567800
H 6.53767400 27.32073400 -2.11309200
O -15.09992900 -20.47383400 -12.03808000
H -14.35839800 -21.03975300 -11.82260400
H -14.71090600 -19.70036200 -12.44590300
O 19.81856600 19.08078900 -4.61325600
H 18.98152400 18.79010400 -4.97578200
H 20.06879700 18.39886300 -3.99013600
O -10.63894600 -0.31809100 -5.44190300
H -9.76874100 -0.36567600 -5.83818600
H -10.48302400 -0.34410800 -4.49801300
O -26.86469100 7.79296200 10.84493300
H -26.49204600 7.13905600 11.43663000
H -27.27857800 7.28713000 10.14582800
O 7.83141700 -12.83976100 -25.95819900
H 7.56072600 -12.04356400 -26.41575700
H 8.75064800 -12.69616300 -25.73390100
O 21.82119600 -2.85038400 -10.30770800
H 22.33893000 -2.93694600 -9.50707100
H 22.32699800 -3.30621600 -10.98024000
O 13.09623900 -3.72281800 -20.61464800
H 12.96368200 -4.64535000 -20.83356700
H 12.72101800 -3.61934300 -19.74033700
O 6.62921000 -4.03407600 -7.88318100
H 7.34858700 -3.53751200 -7.49269000
H 6.24623000 -3.44546200 -8.53339400
O -0.31640800 -2.81106100 8.60878700
H -0.29080600 -2.29515900 9.41485900
H -0.91625500 -3.53297600 8.79570500
O -9.22834200 6.97697700 6.34315300
H -10.13683300 6.67894800 6.29431500
H -8.98806400 6.88905600 7.26535300
O -11.18573500 1.42308100 25.60282800
H -10.73175200 2.26244800 25.52584700
H -11.18314100 1.22504600 26.53914600
O 11.16448500 -0.91554700 23.36919100
H 11.89761800 -1.16790000 23.93079200
H 11.56218000 -0.43328400 22.64449900
O -8.94896900 16.35647800 1.39236700
H -9.15969600 17.05793400 0.77583200
H -8.86388600 16.79012000 2.24126800
O -11.14877900 18.98529200 -16.97440800
H -11.72295300 18.39197400 -16.48978400
H -11.33176000 19.85400200 -16.61695000
O 10.30582600 1.59731500 -23.01818000
H 11.04462000 2.12011000 -22.70604100
H 9.53154000 2.00924300 -22.63515000
O 12.46451600 -19.31378900 -0.60000900
H 12.11240400 -20.02324100 -1.13783500
H 12.67337500 -18.61416500 -1.21873500
O 6.31697900 -13.10651100 -20.00125500
H 6.53889800 -14.02504500 -20.15490800
H 6.72017500 -12.89161400 -19.16032100
O -14.08642500 -14.76201200 -20.48085000
H -14.50323400 -14.89402200 -19.62914300
H -14.66492800 -15.19367500 -21.10927600
O 15.42849100 -2.33840000 23.83494400
H 14.81379100 -3.06033100 23.70257500
H 15.43585400 -1.86383200 23.00389200
O -27.66471400 4.21014900 -8.29578600
H -27.26320500 3.72427300 -7.57517700
H -28.57793300 4.32946700 -8.03556900
O -1.79556500 -6.06696600 7.35165700
H -2.39702400 -6.15615800 6.61216200
H -0.92528200 -6.00996800 6.95760700
O 2.95577000 19.75303000 13.47056900
H 3.87485900 19.92835300 13.26784300
H 2.96905200 19.31422900 14.32097800
O -7.14548700 18.76599700 -13.27372900
H -7.50557600 19.55724900 -13.67475000
H -6.60679600 18.36568400 -13.95599000
O -15.00568500 3.50491300 8.47302100
H -14.99614600 4.45011000 8.62491900
H -14.53467200 3.38169800 7.64907800
O 4.62723100 21.87553100 6.26833900
H 5.01267200 21.72096800 5.40572200
H 3.91222400 22.49247000 6.11320200
O 19.12630600 18.15022400 -7.75256000
H 18.72589900 17.83562400 -6.94184200
H 18.54545200 18.84488000 -8.06236400
O -7.55382500 -3.00938100 2.22321400
H -8.49360700 -3.18456200 2.17140900
H -7.43908500 -2.15091100 1.81605200
O 7.85741000 -20.97787600 15.75621400
H 7.27399400 -20.27004600 15.48205200
H 8.50804400 -21.04712500 15.05778900
O 13.72685100 12.37751100 -18.00925400
H 13.14543100 12.81935400 -17.39015300
H 14.27246800 13.07292100 -18.37616500
O -22.38343400 7.51634600 12.07621900
H -22.11268900 8.21745500 11.48317200
H -22.42072200 6.73098300 11.53056900
O 20.01291200 -19.53246100 -10.07228900
H 20.51997000 -19.80695700 -9.30802000
H 19.21983900 -19.13467600 -9.71351500
O -19.21746500 -8.08401100 16.51518800
H -19.65071800 -7.24193000 16.65573700
H -19.04364700 -8.42272800 17.39324000
O -12.24943700 11.81429800 3.86887700
H -12.57762700 11.00718700 3.47211000
H -12.28160300 11.65734300 4.81240700
O 26.93332400 -5.69638100 -11.92323100
H 26.43316400 -6.34843000 -12.41438700
H 26.47719000 -5.61349700 -11.08598000
O -17.56281500 -4.24283700 19.48267300
H -17.41333700 -4.85959500 20.19949100
H -17.83291600 -3.42927000 19.90819600
O -12.19832700 -18.57061900 -5.14994000
H -11.24958700 -18.66191900 -5.05983500
H -12.35691100 -17.62683000 -5.15551600
O -15.71424800 17.31124000 10.16110900
H -15.58082300 18.13782700 9.69687400
H -16.31357200 17.52294100 10.87658700
O -29.28734100 -0.10097000 6.49933100
H -28.92639900 0.71838700 6.16030700
H -28.91456900 -0.19181200 7.37609000
O 21.42639900 14.58678600 7.00438400
H 22.28975900 14.94312900 6.79416600
H 21.40500100 14.53686700 7.95987700
O -7.66877900 -1.94767200 -6.80530100
H -7.16670500 -2.32413400 -7.52832200
H -8.23368900 -1.29068200 -7.21169800
O -9.70116800 -20.76846200 -4.96661800
H -9.89034000 -20.58874200 -4.04549000
H -8.75612300 -20.64529100 -5.05399500
O -0.26854400 -11.06734300 -26.59487300
H -0.30465000 -11.71050000 -27.30311500
H 0.62601400 -11.11905900 -26.25870600
O 10.49270200 -13.14518400 11.82270700
H 10.74302400 -13.75253900 12.51914200
H 10.93795300 -12.32557200 12.03696100
O -12.05665600 18.32364100 10.96452100
H -11.46168300 18.44659000 10.22462100
H -12.86998000 18.75472100 10.70262100
O -8.26452800 -14.08596800 -3.50880400
H -8.73078500 -14.65014700 -2.89165900
H -8.01234400 -13.31633100 -2.99892200
O 21.17873000 6.03222800 -16.53474300
H 21.71022700 5.98360600 -17.32954400
H 20.27852600 6.13054900 -16.84439400
O 12.41735100 -25.99932100 -2.39501900
H 11.72952500 -25.96662900 -1.72989600
H 12.61930900 -25.08389100 -2.58767600
O -9.78001200 -15.30756900 -23.68620500
H -10.66030300 -15.37197700 -23.31539200
H -9.36523500 -16.14667700 -23.48676700
O 2.82090500 15.62287100 5.91863200
H 3.60463300 15.56849400 6.46578200
H 3.05727700 16.21586500 5.20560700
O 3.45283700 15.53336000 -12.16379400
H 2.50063200 15.44635100 -12.21171500
H 3.70737100 15.04278200 -11.38247300
O 16.99295500 3.60150600 -23.75480700
H 17.41207600 2.90235400 -24.25688800
H 17.47520900 4.39534700 -23.98538300
O 3.03647200 15.50379600 12.44867800
H 2.43450200 15.28666700 13.16075100
H 3.89871900 15.55632100 12.86061100
O -18.29622200 7.23147000 2.80882500
H -18.34949100 8.01873600 3.35098500
H -18.17572400 6.51189300 3.42818500
O 27.26766800 2.82296800 -7.47386000
H 27.40528500 2.18176200 -6.77638000
H 27.84141700 3.55636300 -7.25281400
O 13.16566400 -3.70329700 19.93450900
H 13.92941700 -4.14150700 19.55872300
H 12.47030400 -4.36067600 19.91883900
O -12.45036700 -10.52307900 17.20961300
H -12.81034300 -9.83937700 17.77488400
H -12.10094600 -10.05774700 16.44981800
O 14.55763300 -10.84897000 -4.64486500
H 13.60836600 -10.95753200 -4.58430000
H 14.75364200 -10.08010700 -4.10975100
O -8.53977400 -16.26583100 22.50427600
H -8.94912300 -15.65679200 21.88940400
H -8.48382700 -15.78442200 23.32952200
O -17.78513800 -12.12865600 12.54483900
H -18.19217500 -12.20456800 11.68163500
H -17.85802800 -13.00143500 12.93066600
O -6.17924500 11.15593600 -7.56424000
H -5.65845400 10.56807400 -8.11174100
H -5.55191700 11.55198900 -6.95966000
O 10.28634900 17.53016800 19.24762200
H 11.12021300 17.15737600 18.96081500
H 10.41122700 17.73234000 20.17468700
O -8.64832400 18.08409300 -18.27715200
H -9.32713200 18.75293800 -18.18534300
H -7.84519200 18.50209100 -17.96703300
O -2.79340800 16.62338400 -21.49584400
H -2.51829000 16.88770100 -20.61777300
H -3.74789200 16.69275400 -21.48771800
O -2.88641800 -21.47827000 -4.45399000
H -2.30274200 -21.28918000 -5.18892400
H -3.29378500 -20.63936500 -4.23902800
O -15.57206300 22.15505800 -6.13496000
H -15.23083000 21.71220300 -6.91213600
H -14.97094000 21.91598600 -5.42968600
O -19.27267200 21.84929800 -5.76336100
H -19.63870200 21.68779600 -6.63313200
H -18.77015400 22.65889100 -5.85253500
O -7.45918400 13.42407300 6.42276900
H -7.83002300 12.66389700 6.87129200
H -7.01267600 13.92206300 7.10727800
O -5.13651100 10.44967800 8.97190800
H -4.55623600 10.76106700 8.27701200
H -5.65034500 9.74929400 8.57021900
O -6.54622000 0.60273000 8.59012700
H -7.15612000 1.05251600 9.17517000
H -6.13291300 -0.06905700 9.13215700
O 18.95144300 -15.35914200 6.97518600
H 18.58857100 -15.09609600 7.82117200
H 19.71507300 -15.89491900 7.18902900
O -20.09421300 16.92470300 -7.60721100
H -19.76234700 17.30906900 -6.79561500
H -20.48213600 16.08990400 -7.34540300
O 3.14947700 24.73811200 15.85731200
H 2.57819700 24.33771400 16.51296700
H 3.98339500 24.87569700 16.30627500
O 18.56378000 -18.73354400 3.72069000
H 19.10057800 -19.52626100 3.71783800
H 18.85924500 -18.23160500 2.96129900
O 6.61758600 -17.42086500 -19.01753900
H 6.90521800 -16.60190400 -19.42143600
H 6.38769700 -17.99129900 -19.75080100
O 12.44116500 12.03134100 24.50421200
H 12.07931500 12.87436200 24.23045500
H 13.17258600 11.87050700 23.90833300
O 19.65049400 10.60675900 -9.95667500
H 19.06198600 9.99959600 -9.50770600
H 20.48931500 10.51868100 -9.50441700
O -11.15120400 -19.10510500 -19.44499700
H -10.57051300 -19.66460300 -19.96106200
H -11.88902400 -18.91337200 -20.02359600
O 1.47308200 24.69784000 4.15876300
H 1.05267600 24.91118000 4.99201400
H 1.82613100 23.81633300 4.27800600
O -27.49595700 2.88388800 5.23979500
H -28.03599900 2.98152900 6.02425800
H -27.03232400 2.05530300 5.35982600
O 19.01796600 -13.90782900 15.46979400
H 19.89041200 -14.13030200 15.79522600
H 19.04987700 -14.09029900 14.53085700
O 12.64389400 17.91671600 -18.11029600
H 12.56886000 18.71083900 -18.63973000
H 12.73170300 18.22712000 -17.20926600
O 21.02061500 3.44290700 -17.24350900
H 20.47108300 3.94829200 -16.64420700
H 21.21310500 2.62976600 -16.77696100
O -0.71683300 0.81324100 29.98046000
H -1.62912600 1.10006500 29.93555900
H -0.20443500 1.57316400 29.70499100
O 23.67290800 -7.68830500 -8.38017800
H 24.41988600 -7.61810700 -7.78548600
H 23.90400900 -7.14492200 -9.13333400
O 18.73257700 -5.89562000 21.77823900
H 18.65430000 -6.33640500 22.62449100
H 17.84337900 -5.61585400 21.56150300
O -7.40544100 27.22486900 -2.45840000
H -7.45930800 27.01245700 -3.39035600
H -8.14244500 26.76520000 -2.05659600
O 6.83564300 -13.69718500 -9.61795000
H 6.69245100 -13.74913000 -8.67277300
H 6.75656700 -12.76722500 -9.82970000
O 2.84540100 21.72310500 -5.68333000
H 3.44679400 21.82203900 -4.94502000
H 2.05539800 22.19727800 -5.42454300
O 3.08726700 10.46239700 -2.07426100
H 2.25806700 10.17067800 -1.69493400
H 3.61694200 9.66906600 -2.15163100
O 22.23250600 10.77471800 11.75072700
H 22.54400300 10.31182700 10.97274000
H 21.39901200 11.16563200 11.48921100
O -25.97932000 2.39893100 -14.27148900
H -26.18901300 3.32958800 -14.19107100
H -26.51754500 1.96564700 -13.60930000
O 16.09552800 17.45909800 -13.88071300
H 15.77692700 17.35611200 -12.98380200
H 15.61259400 16.80943800 -14.39123600
O -14.43588400 19.86686200 -6.01576000
H -14.33860600 19.10196000 -5.44828900
H -13.54230500 20.11576200 -6.25130800
O -20.55934200 -14.20745400 -11.37257300
H -19.91821300 -13.55842000 -11.08227900
H -20.03891000 -14.95008900 -11.67845100
O -4.38292100 -6.14726000 -4.28074700
H -4.95262200 -6.58629200 -3.64888200
H -3.62759300 -5.85415200 -3.77135000
O 23.23306600 -6.60986400 6.56350400
H 22.33865500 -6.86448500 6.33599700
H 23.67976700 -6.49807700 5.72452900
O 12.40720400 2.07215600 -24.89676500
H 12.47669400 1.31573700 -24.31404500
H 12.38126400 2.83152800 -24.31487300
O -17.95850200 -18.19452500 -15.68979500
H -18.36406900 -17.42773000 -16.09489200
H -17.22122200 -18.41449900 -16.25895700
O -14.45814800 -19.52301000 -17.60173600
H -14.12396100 -20.23690100 -17.05837500
H -14.57307700 -18.78717800 -17.00068800
O 8.32056400 -15.95778500 5.98070600
H 8.50217900 -15.49416600 6.79840700
H 8.15118700 -15.26924300 5.33794800
O -4.30772100 -25.68411200 -14.37179900
H -4.89193600 -25.15138900 -14.91167000
H -3.51833800 -25.79933400 -14.90049200
O -17.54260300 -16.76426800 15.19367000
H -18.42996700 -16.57695600 14.88697600
H -17.66003600 -17.26030700 16.00365300
O 9.63527200 -14.59591800 -12.75315800
H 10.29434300 -14.93949600 -13.35659900
H 9.37790000 -15.34439500 -12.21514500
O -22.92227000 -8.64198000 11.20056700
H -22.85433700 -8.92258600 10.28776500
H -23.78047000 -8.22380300 11.26792200
O 3.96963200 28.05745100 9.85188900
H 4.54053100 28.02853300 9.08390500
H 3.10511500 28.28389000 9.50946600
O -6.65049100 -19.36956300 -14.04925400
H -6.72499900 -20.25897600 -13.70290800
H -6.69978300 -18.79995800 -13.28176600
O -27.97307900 8.92254200 6.16101100
H -27.61432200 9.65184800 6.66694400
H -28.04863400 8.20131900 6.78554700
O 3.14145800 -20.10855400 -8.52041500
H 3.41809700 -20.71472600 -9.20786400
H 3.95475800 -19.78675400 -8.13195000
O -6.30005400 17.68622900 18.93547300
H -6.96570900 17.40087200 18.30934500
H -6.38073300 18.63938300 18.96556300
O 5.99505500 11.17503600 -21.04218400
H 5.17089000 10.95191600 -21.47523400
H 5.74932200 11.76847100 -20.33270100
O 13.94153600 19.11869100 -7.36043100
H 14.11534300 19.08286500 -6.41965000
H 13.53445400 18.27810700 -7.56928500
O -21.40893400 8.84699100 13.69712800
H -21.88715200 9.53275000 13.23064800
H -20.68905800 8.60662000 13.11410400
O -3.46220400 22.10421700 -10.82243800
H -2.88049500 21.36449000 -10.99845000
H -3.17038900 22.45398100 -9.98075800
O 2.56492800 -18.60398300 5.33761600
H 1.61302700 -18.63493000 5.43502400
H 2.79445500 -19.41703500 4.88797000
O 16.24904300 -14.49375000 8.99170200
H 16.50850400 -13.62708500 9.30496600
H 15.78747300 -14.89520800 9.72770500
O -1.29908300 15.19844300 14.66506300
H -0.97263900 14.30616000 14.54747600
H -0.63728300 15.75953900 14.26119500
O -15.98585800 -14.75409300 -17.13128000
H -16.37245500 -15.01709100 -16.29585400
H -15.09841900 -14.46873700 -16.91461800
O 0.82697400 -17.20630300 23.37536900
H 0.69936600 -17.69524100 24.18852100
H 1.45343900 -16.51736200 23.59631900
O 14.89290500 -7.99405200 -23.85268700
H 15.49000100 -7.33200000 -24.20158000
H 14.92291900 -7.87885800 -22.90308400
O -2.56542800 -0.65156100 -0.63421000
H -2.89827000 -0.21028900 0.14749200
H -2.76130900 -1.57834900 -0.49778600
O 8.07331100 -27.54875900 -4.48995900
H 7.80572500 -27.14182900 -5.31419700
H 8.18928700 -28.47577300 -4.69759100
O -25.33700400 8.35527100 -10.08052600
H -24.76434000 9.10413500 -9.91372900
H -26.21731500 8.72559400 -10.14241900
O 14.31082600 -13.65047400 21.70750400
H 14.76827800 -14.37141800 21.27444500
H 13.38110600 -13.82251400 21.55938000
O 7.64683300 12.87544300 -25.99553600
H 8.25450500 12.84561800 -25.25634200
H 7.04962900 13.59625300 -25.79629600
O 13.36882000 -0.85710500 -18.94332200
H 12.64204400 -0.70071200 -19.54656300
H 13.28146400 -1.77380400 -18.68265100
O -4.21553400 -21.59746800 5.63817700
H -3.67045800 -22.13014800 5.05877600
H -4.66493300 -20.98221600 5.05902100
O -21.97174900 15.30074400 -3.38604700
H -22.12636500 14.36191900 -3.27991800
H -22.81713400 15.66257000 -3.65123100
O -10.52666000 -6.43258000 -26.36172600
H -9.65945100 -6.12426000 -26.62526000
H -10.53430200 -6.36426700 -25.40716200
O -13.47935500 15.65973100 -11.70060100
H -13.43466700 15.16455400 -12.51874800
H -12.59840000 15.60654300 -11.33045800
O 4.90268000 -16.47059500 -4.40691800
H 4.40190700 -16.88471800 -5.10997600
H 5.25710000 -15.67010800 -4.79360000
O -4.19494600 12.00736500 19.73100300
H -4.24640900 12.30095000 18.82121100
H -4.81820000 11.28377800 19.79339700
O -6.10623200 -13.44813300 -17.68840200
H -6.67373500 -12.71576600 -17.92952500
H -5.54013600 -13.58337500 -18.44811400
O 6.94390700 -8.47470200 -14.77621700
H 6.09487300 -8.45096700 -14.33447000
H 7.33368500 -9.31005500 -14.51897200
O -19.45839700 3.18811100 21.90363200
H -18.57642200 2.87992000 21.69458300
H -19.33393600 3.85747900 22.57622000
O 0.10694800 -22.63660000 4.67864800
H -0.63926500 -23.22679200 4.78542600
H 0.64444300 -22.77329900 5.45860300
O 12.12984200 -10.09410900 -22.51135900
H 12.03222800 -10.37185200 -21.60037500
H 11.78181400 -9.20297300 -22.53725400
O 0.10812300 -17.32202100 4.30716700
H -0.78326900 -17.58884800 4.53252500
H 0.04870800 -16.99185900 3.41085200
O -25.41357300 -11.37003600 7.63194600
H -26.25271800 -11.11297700 7.24943000
H -24.79204200 -11.34588400 6.90460000
O -11.21906700 -27.76082700 -1.86689100
H -11.83997500 -27.44890800 -2.52548200
H -10.44380800 -28.02411500 -2.36243900
O 5.92360700 -10.37882500 2.24034500
H 5.84307200 -10.00406600 3.11763200
H 5.18986700 -10.98839400 2.16308900
O -18.45954300 10.92988500 15.08967600
H -17.64655000 10.91903300 15.59513300
H -19.08755600 11.39669000 15.64068300
O -12.88967600 11.69686400 17.81455000
H -13.62481900 11.09340800 17.92394900
H -13.03916900 12.11855200 16.96853100
O 12.84507400 -19.50410200 15.81779000
H 12.65003400 -20.27737800 15.28810500
H 13.73349300 -19.64528100 16.14443400
O 18.37602300 -15.00606900 18.07484900
H 18.73570400 -14.27588100 18.57885000
H 17.73244000 -15.41365100 18.65415400
O 5.35216500 13.49603400 7.16554400
H 4.65239900 13.99407300 7.58844800
H 5.60472900 14.02007500 6.40560300
O 11.79807100 -24.94822600 4.12166300
H 12.14352400 -24.07694700 4.31685000
H 10.99154400 -25.01504500 4.63251100
O 14.82335100 -6.38439200 -11.45280700
H 14.51467100 -7.28514400 -11.55242400
H 14.53496300 -5.93450700 -12.24675500
O 1.20479400 -29.22835700 3.80954200
H 1.93630800 -29.73733100 3.45969200
H 0.42778000 -29.58176700 3.37679800
O -14.01493800 1.05394400 26.14481700
H -14.54831600 1.84852400 26.17151500
H -13.36195900 1.17066200 26.83468100
O -14.42436900 25.00060000 8.05916000
H -13.71620200 25.17515500 8.67931600
H -15.06685400 24.49202600 8.55361000
O 18.96512200 -14.11949200 -9.24412300
H 18.62782700 -13.58878600 -8.52221900
H 19.59490900 -14.71600100 -8.83981800
O -10.49359800 5.37385500 25.92315100
H -9.65865300 5.41969000 25.45696600
H -11.09305800 4.94091800 25.31559100
O 14.17897200 -16.30165400 -15.64372600
H 13.43450400 -16.22275900 -15.04698100
H 14.86691100 -16.72123400 -15.12738200
O 16.94862200 -8.29593800 -17.70718300
H 16.45163400 -7.50857400 -17.92994400
H 17.60642300 -8.37721300 -18.39755100
O 4.44105200 24.45485200 13.66009900
H 4.10775100 25.31349800 13.92125000
H 3.67627200 23.87955100 13.66757600
O 7.65088900 11.02388300 9.38184300
H 7.16830900 10.35159700 8.90047900
H 8.07245500 10.55738000 10.10335100
O 17.81367600 -16.00521500 -8.89850600
H 17.12840900 -15.33678800 -8.88515100
H 18.09167900 -16.05669100 -9.81282600
O 0.89764900 -18.76635200 0.99725100
H 0.01689300 -19.11479800 1.13659300
H 0.87249400 -17.87911900 1.35516500
O 8.82666400 5.41392400 10.02010900
H 8.40715500 4.86801600 10.68536000
H 9.04942500 4.81199700 9.31019500
O -10.35691100 23.91733300 -10.26703400
H -9.63260300 24.09515600 -10.86729800
H -10.90452200 23.27790800 -10.72219800
O 4.80539200 22.49326800 1.26014000
H 4.56568300 23.09364000 1.96629400
H 4.93590700 21.64719500 1.68797700
O -15.64632800 6.02355200 4.19492300
H -16.07558700 6.87564100 4.27394000
H -15.41539500 5.94744000 3.26929200
O 17.35002100 -12.67790100 7.50849400
H 16.55579100 -13.09325800 7.17198200
H 18.06913500 -13.10580300 7.04406700
O -7.56073900 18.16184100 13.63007800
H -7.14315200 17.70995600 12.89660500
H -8.46585800 18.30126400 13.35216200
O -6.41041500 3.63400200 -22.88481100
H -5.78287600 3.95880600 -22.23885500
H -7.20944500 3.45937500 -22.38784700
O -15.45586500 -18.40527700 7.79737400
H -15.06574600 -17.57675600 7.51822800
H -15.14497900 -19.05142100 7.16352500
O 29.13697000 -4.96479700 2.93158900
H 29.23886900 -5.82059000 3.34847900
H 29.46943800 -4.33614100 3.57203700
O 28.30900000 -0.06917100 -6.86445600
H 29.14227800 -0.32033700 -6.46555200
H 27.89252500 -0.89537000 -7.10912200
O 8.26151600 17.12658700 11.10978000
H 8.92045600 17.77533000 11.35775500
H 7.47584500 17.37256400 11.59777000
O -18.37769800 3.71919700 14.08796100
H -18.82622300 3.26610900 13.37374800
H -17.53416800 3.98450900 13.72192300
O 21.77403900 13.09032200 2.21493800
H 21.54917300 12.41653000 2.85681000
H 21.66933200 13.92019800 2.67997400
O 24.62947800 13.26679200 -7.71478800
H 25.35756800 13.88743300 -7.67942100
H 24.95177800 12.48144800 -7.27289000
O -26.19137400 -10.01506800 -1.24776600
H -25.62153000 -9.89564800 -2.00775200
H -27.07025400 -10.12113000 -1.61141200
O -0.92960600 0.46316400 -26.40796900
H -1.59216600 0.63985900 -25.73987000
H -1.31290800 -0.21527900 -26.96358700
O 8.51814400 -18.47183200 -8.76683900
H 9.08704900 -19.22922500 -8.90563900
H 9.11370300 -17.74369100 -8.59066700
O -9.03924400 7.59358700 -2.42695300
H -9.16885700 8.39295900 -1.91630000
H -8.12640600 7.62733500 -2.71244300
O 12.94760700 -16.67061000 -18.09017700
H 12.61288600 -17.07610300 -17.29011400
H 13.26863800 -15.81146600 -17.81681300
O 11.10908900 -15.46435500 -18.04230400
H 10.64109500 -14.74011400 -17.62634800
H 10.56557800 -15.71385000 -18.78947500
O 2.52649500 26.83544300 2.86701400
H 2.75736500 26.42124600 3.69870000
H 2.68407200 27.76952000 3.00334900
O -20.71294400 8.88299100 2.12889500
H -20.19900300 8.07556600 2.10669700
H -20.91373400 9.07404900 1.21287200
O 7.38333800 20.88546000 1.80413900
H 7.48575900 19.93510800 1.85800700
H 6.90373400 21.12816800 2.59596600
O -22.98450200 -4.89983400 -9.40026300
H -22.21148900 -4.58390200 -9.86845100
H -23.50327800 -5.35926400 -10.06034900
O -22.80429600 10.86015900 10.90885100
H -23.57033000 11.15505600 10.41611400
H -22.05587000 11.25870800 10.46507800
O 3.75293900 -15.77500300 6.87612700
H 4.07187100 -15.40724200 6.05175100
H 3.91298700 -16.71594500 6.80592600
O -20.64427500 15.78094300 1.10639000
H -19.80220800 16.23062900 1.17896100
H -20.43213100 14.91081400 0.76906500
O -10.92836100 15.52914700 0.56646800
H -11.54945800 14.84113400 0.80613000
H -11.41997000 16.11839000 -0.00539700
O 10.65717000 -1.84285700 -27.14103000
H 10.26645900 -1.03470600 -27.47389500
H 9.91441100 -2.40625200 -26.92466500
O 9.06879900 23.33605200 -16.12433900
H 8.24599400 23.67738900 -16.47511500
H 9.25661400 22.55678000 -16.64719400
O -12.28051700 15.81545200 -6.45693300
H -12.98647600 15.67196000 -5.82638300
H -11.47706300 15.60546900 -5.98123800
O 21.20269200 17.45772500 0.53249500
H 20.92575700 16.77080500 -0.07414400
H 21.38105400 18.21872700 -0.01975500
O -0.37366400 20.56939500 -15.72418800
H -0.60279400 19.64240500 -15.79310700
H -0.30329500 20.87502600 -16.62837500
O 16.50219200 -8.49034100 -12.76474100
H 15.66131600 -8.88564800 -12.53404400
H 16.34190600 -7.54683500 -12.76010900
O 3.18889100 -27.85719800 10.66986500
H 2.26693100 -27.67297700 10.85046000
H 3.42790900 -27.25645200 9.96425100
O -22.85933000 11.73304300 -8.40165200
H -22.64054100 11.07427500 -9.06098400
H -23.18371000 11.23471200 -7.65174400
O -2.64984400 4.90999300 -4.55005400
H -1.98378500 4.78492500 -5.22628400
H -3.48290100 4.73554200 -4.98766000
O 9.48340600 -17.99953600 0.77230500
H 9.41394200 -17.49800400 -0.04022300
H 10.04515800 -18.74377000 0.55674000
O 7.36692200 14.28161600 21.00436300
H 6.56145100 14.25712100 21.52125500
H 8.05623400 14.50302800 21.63025600
O 12.96446000 27.05196300 -0.36598000
H 13.11205000 26.92933200 -1.30392500
H 12.75207500 26.18036300 -0.03263000
O 19.30433000 -7.12984300 -1.43979700
H 19.60620600 -6.92824900 -0.55391200
H 18.36665000 -7.29872400 -1.34951100
O -23.14228900 3.95010900 -8.22409900
H -22.33082000 4.40805800 -8.44401200
H -23.39814400 3.49933400 -9.02862200
O -8.15713900 -22.47301500 4.60720200
H -8.10919800 -23.19298100 5.23641700
H -7.84651300 -21.70467700 5.08583100
O -0.18239600 21.81361700 11.98094200
H -0.18157600 22.72743700 12.26641400
H -1.10324400 21.55301000 11.98716800
O -9.84623600 -1.12909600 -1.28298800
H -9.80327800 -1.96256900 -0.81390500
H -9.66191900 -1.34894700 -2.19601000
O -12.33209300 3.96044000 9.05500700
H -12.80694400 4.50034900 8.42288600
H -12.54753200 3.05780600 8.82101100
O 19.58049500 13.71745600 12.77851100
H 18.89561000 13.65658600 12.11233600
H 20.24749800 14.28770500 12.39662000
O 8.14856900 -2.29280600 -24.30425400
H 7.96166900 -2.01893900 -23.40613000
H 7.29382600 -2.33796500 -24.73238000
O -14.25820600 22.69935500 7.07776400
H -14.03387700 23.45725500 6.53755400
H -15.20007000 22.57955700 6.95752100
O 6.62541900 -13.80847000 25.79602300
H 5.72175200 -14.12110200 25.84303600
H 6.94138200 -14.09225900 24.93838200
O -17.29331500 -12.67044500 17.02142300
H -17.66801700 -13.46062900 17.41100000
H -17.38342500 -11.99588400 17.69430100
O -7.59584000 19.74506800 20.42866600
H -8.46310700 19.88348200 20.80978600
H -7.15819000 19.13631500 21.02347700
O 0.33704800 -19.26596400 -14.93845400
H 1.04219500 -19.22565700 -15.58475500
H 0.31832400 -20.17794200 -14.64886300
O 0.63701700 1.38681900 -2.69771100
H 0.86920900 1.97340100 -3.41782900
H 0.74220800 0.50450700 -3.05320700
O 4.92534500 23.51749900 4.09409900
H 5.17152900 23.86982600 4.94956400
H 4.00048800 23.74095700 3.99103200
O 5.99770600 -10.12370400 -20.07322000
H 6.54936500 -9.34138200 -20.08758100
H 6.60811200 -10.85564000 -19.98609300
O -9.22687400 9.03943400 -4.09434700
H -9.25954000 9.34661100 -5.00051300
H -9.97863500 9.44915400 -3.66667800
O 15.46014400 21.88417800 7.67300000
H 14.88606300 21.90424000 8.43889200
H 16.16987400 21.28789200 7.91099700
O -15.87808200 12.11773100 -4.53167000
H -15.70141500 13.03886500 -4.33967100
H -16.69097700 12.12148800 -5.03674800
O 12.12697700 20.57625600 7.30730000
H 12.43411100 19.93962200 6.66160100
H 11.49540200 21.12056600 6.83745400
O 11.53747600 27.10904000 -5.66462900
H 11.10267900 27.44024600 -4.87861600
H 12.35958600 26.73143500 -5.35243200
O -2.52756400 -8.66112600 6.78662800
H -2.73723200 -8.97123000 5.90547200
H -1.67593800 -8.23270600 6.70231900
O 1.95280500 -25.67840100 -2.26512400
H 2.72756900 -25.41740300 -1.76694300
H 1.21212500 -25.48383700 -1.69114200
O -13.66139200 17.43107200 -14.03056400
H -13.99212400 17.84539000 -14.82775900
H -13.55744900 16.50692400 -14.25653600
O -6.42256700 -12.37816300 22.64558200
H -6.25213500 -11.44705100 22.50225100
H -6.50563000 -12.47156900 23.59442000
O -7.02922300 -12.11739500 -24.98935400
H -6.33205200 -12.69885900 -25.29334900
H -6.59631700 -11.28198100 -24.81444500
O 1.47967100 -6.22807000 28.97978800
H 0.78852100 -6.85432500 29.19583800
H 2.27168700 -6.75665500 28.88373500
O 7.40991400 24.80758800 -6.93823500
H 8.12339800 25.29373400 -6.52451500
H 6.89024600 24.46416800 -6.21165000
O 0.06439000 15.36700600 -4.12004600
H 0.69883000 15.31385700 -4.83504500
H -0.78808300 15.43411800 -4.54981700
O -23.76178400 8.94759600 10.22718400
H -23.04337200 9.10052400 9.61313200
H -24.54096200 9.28525400 9.78583800
O -25.31414400 -13.56071100 8.01666500
H -24.50548000 -14.06820000 8.08793000
H -25.44396500 -13.17847300 8.88439700
O 5.35712300 -0.72427600 -3.56498600
H 6.05628100 -0.51499000 -2.94535800
H 4.54770400 -0.64832800 -3.06002000
O 0.11042100 4.32926100 -29.29770500
H 0.46680100 4.56182000 -28.44010800
H -0.41116900 5.08660600 -29.56282700
O 2.80561200 -9.25831800 -11.35084200
H 3.19090700 -9.94320300 -11.89769000
H 2.14501000 -8.84193600 -11.90414900
O 11.09743800 22.79460300 -15.46780700
H 11.04562400 22.50347500 -14.55724600
H 11.97490700 22.54588200 -15.75781400
O -18.98026800 -6.03878900 21.19655700
H -18.27778900 -6.42439500 21.72038200
H -19.73459000 -5.99968300 21.78425300
O -9.43553200 12.14783300 -24.46348600
H -8.84818600 11.40950800 -24.62616300
H -8.92692600 12.75531700 -23.92664300
O 11.85673100 -2.01616600 0.85908600
H 11.21331900 -2.13323400 0.15988700
H 12.63973100 -1.68212800 0.42176900
O -0.41579300 -15.95319400 -25.40320900
H -1.06341900 -15.97232100 -24.69838500
H 0.32251600 -16.46623000 -25.07517000
O 26.72895600 -10.09959500 -3.50753200
H 25.82735600 -9.94733700 -3.22381400
H 26.86665600 -11.04063000 -3.40071700
O -9.21040400 -12.87148500 1.65861700
H -9.33420500 -12.96834800 0.71423800
H -8.45935400 -13.42639900 1.86816700
O 19.32213100 -19.36789300 -1.06633200
H 20.27860500 -19.39152700 -1.10041600
H 19.05753700 -20.27359900 -0.90632200
O -19.77790600 8.80300600 6.94982800
H -20.72129700 8.64006500 6.94473600
H -19.66618100 9.62627800 6.47479500
O -15.07957300 25.14921600 -2.55595300
H -15.10039100 25.85317100 -1.90743500
H -15.47195100 24.39535800 -2.11589100
O -14.74917500 -24.30101800 1.54270600
H -14.27775500 -25.05681000 1.19184500
H -15.53088400 -24.66684100 1.95625400
O -24.45103500 -1.72534200 17.07714400
H -24.99878800 -2.18480800 16.44041800
H -23.98404400 -1.06212000 16.56923500
O -1.68796300 -13.03913500 -12.28605200
H -2.58736500 -12.80415100 -12.05709600
H -1.37723600 -12.32145400 -12.83768500
O 11.87284200 14.19886500 -14.21482000
H 11.98903000 13.57917000 -14.93526400
H 11.64685300 15.02823700 -14.63552000
O 4.54155300 17.45282800 -21.05710600
H 3.73469100 17.12344600 -20.66082000
H 4.43914400 17.29470000 -21.99541600
O 1.31219200 11.52396100 25.52503300
H 0.50329900 12.02291700 25.40971600
H 1.36669200 10.95898600 24.75448100
O 5.45974700 13.06338900 16.66155000
H 5.71093800 13.02453900 15.73853500
H 5.51450900 12.15955700 16.97139800
O -4.62625400 -13.38261200 5.17082300
H -5.32273900 -13.45677500 5.82348800
H -3.87758800 -13.83883000 5.55459500
O -1.44887000 -4.63673300 -11.00929500
H -0.97684400 -4.49402700 -11.82989800
H -1.14162600 -5.48545600 -10.69119500
O -1.37014400 -18.69063600 14.01605200
H -0.52964200 -18.86290800 13.59126900
H -2.02975900 -18.91229900 13.35902000
O -8.08539500 -23.78532300 -11.57491600
H -8.09827200 -23.64884400 -12.52242300
H -7.22484000 -24.16129600 -11.39050500
O -9.44718000 17.71902400 5.06904000
H -9.01774600 17.18714700 4.39877500
H -10.14913900 18.17845600 4.60850500
O -1.73833300 26.77212900 -5.87722900
H -2.20901800 27.30428300 -5.23548900
H -0.90446900 27.22294200 -6.00896500
O -5.95921600 -4.74953500 -1.58615400
H -6.68972200 -5.06818500 -1.05569600
H -5.43866000 -5.52789600 -1.78387000
O 4.67600900 -19.59563000 17.76009900
H 4.15961500 -20.08479900 17.11930800
H 5.08180900 -18.88647000 17.26176600
O 3.39681400 -14.01178500 18.13521000
H 3.15813000 -14.86555600 17.77373000
H 2.90241400 -13.37662300 17.61746900
O 5.76027300 8.12606500 -2.19788300
H 6.00658000 8.24401800 -1.28028700
H 6.58496900 7.96956000 -2.65755600
O -2.60831800 -4.92607600 -26.69974900
H -2.33711700 -5.79514200 -26.99595200
H -1.83805900 -4.37131400 -26.82164100
O -8.98698300 -18.18582700 -20.47665000
H -8.57322400 -18.21269000 -19.61372200
H -9.77319000 -17.65319900 -20.35788800
O 10.84842300 17.95690700 15.58239800
H 11.19248500 17.30322000 14.97340100
H 10.10698400 18.35444800 15.12616700
O 12.00223300 -8.09480900 -8.00425900
H 12.95272200 -8.00005000 -7.93981500
H 11.64950500 -7.25112800 -7.72194200
O -8.10098700 21.76514900 -5.36745300
H -8.08977800 22.37895900 -4.63282800
H -8.38860900 22.28339200 -6.11886200
O 7.16689600 17.10908800 0.49196200
H 7.23656800 17.95453700 0.93572400
H 6.91264800 17.32091300 -0.40603800
O -16.28329900 12.24644300 7.61720300
H -15.47875800 12.06369700 8.10287800
H -16.17822000 13.14006300 7.29114000
O -5.90768500 15.14809000 -5.17791200
H -5.82448700 16.01573900 -4.78190100
H -6.83691500 15.06047500 -5.38951000
O -16.99767500 -24.02896000 4.41158100
H -16.76871300 -24.22026100 5.32127400
H -16.56154700 -24.70876700 3.89818900
O 11.43442100 -22.30786800 -14.69611700
H 11.23846800 -23.03505500 -15.28718700
H 11.85285800 -21.64665700 -15.24714000
O 12.06883600 -3.10629400 25.91540600
H 11.47906100 -3.52100100 25.28552800
H 11.79367800 -2.19018900 25.94635000
O -16.33142700 -14.64881900 -5.58833400
H -15.82739000 -14.89127200 -6.36533200
H -16.85657000 -15.42199100 -5.38255300
O 27.12790600 10.71357000 -3.80390400
H 27.37022300 11.62587600 -3.96372500
H 27.95478400 10.26474500 -3.62855600
O -9.85909800 -7.79986800 -23.42230500
H -10.05128400 -8.18829100 -24.27597700
H -9.05037400 -8.22279000 -23.13417200
O -17.87303500 21.98000900 0.65853300
H -16.95099500 21.91693700 0.90838800
H -18.28829800 22.47254600 1.36626200
O -4.17750700 -21.53234400 -16.81664900
H -4.14788200 -20.75120800 -16.26392000
H -4.38334700 -22.25096500 -16.21904400
O 11.93023200 24.85376100 9.54979600
H 11.34195900 24.61614500 8.83283300
H 12.32399500 25.68400500 9.28228500
O -21.26704000 -15.98089200 -3.05637800
H -20.89733900 -15.30487800 -2.48814500
H -21.85214000 -16.48600900 -2.49208000
O -16.32758200 22.42136800 -1.66724700
H -16.35659200 22.44666000 -2.62384500
H -17.24226800 22.47195500 -1.39028600
O -0.38281100 27.39564700 -12.15883200
H -1.02374400 27.10926000 -12.80979300
H 0.32131300 26.74900600 -12.20335300
O -15.10094100 -23.32068300 -8.72942000
H -15.33963600 -24.03301400 -8.13598000
H -15.93436600 -22.96604800 -9.03853600
O 12.42638600 -6.04167000 -2.03620500
H 12.49194500 -6.12801000 -1.08499000
H 12.99826100 -6.72425000 -2.38686200
O 4.12821700 -28.47636200 -2.89905600
H 4.05737100 -27.93459700 -2.11290500
H 4.34549600 -29.35139600 -2.57808500
O 0.36463800 -1.57413600 -9.63542800
H -0.55082100 -1.75630600 -9.84829200
H 0.33930000 -1.14320900 -8.78127500
O -5.35485400 -14.54653900 23.52713500
H -4.98669200 -15.21974500 22.95458500
H -6.30316900 -14.65829300 23.46290500
O 11.70948200 -14.35377500 -20.18649500
H 12.35437900 -14.96276500 -19.82621600
H 11.44647400 -13.80565100 -19.44737100
O -10.22591700 19.42024700 2.11456300
H -9.62089100 19.39628100 2.85613600
H -9.72005600 19.09185400 1.37147500
O 9.43971900 20.78263400 -18.57263100
H 10.11382600 20.65770600 -19.24086400
H 8.62305900 20.51021600 -18.99068700
